! Edited 19:27   19/7/2021
&CONTROL 
calculation = "scf", 
disk_io = 'low', 
etot_conv_thr = 1.0E-4, 
forc_conv_thr = 1.0D-3, 
nstep = 40, 
outdir = "/scratch", 
prefix = "cTQcfzEgFebcfhdl", 
pseudo_dir = "/opt/pp", 
restart_mode = 'from_scratch', 
tprnfor = .true., 
tstress = .true., 
/ 
&SYSTEM 
celldm(1) = 15.2741088, 
degauss = 0.02, 
ecutrho = 200, 
ecutwfc = 50, 
ibrav = 0, 
nat = 32, 
nspin = 1, 
ntyp = 1, 
occupations = 'smearing', 
smearing = 'mv', 
starting_magnetization(1) = 0, 
/ 
&ELECTRONS 
conv_thr = 1.0D-6, 
diagonalization = 'david', 
mixing_beta = 1.0000000E-01, 
mixing_mode = 'TF', 
mixing_ndim = 10, 
/ 
&IONS 
ion_dynamics = 'bfgs', 
/ 
&CELL 
cell_dynamics = 'bfgs', 
cell_factor = 2.0, 
press = 0.0, 
/ 
ATOMIC_SPECIES 
Al 26.982 Al.pbe-nl-kjpaw_psl.1.0.0.UPF 
ATOMIC_POSITIONS crystal
Al   -0.230452940833   -0.215935464249   -0.183470768025   
Al   -0.151561642096   0.0509619278086   -0.286401496215   
Al   -0.206538720498   -0.208934677274   -0.160592803485   
Al   -0.400327873119   0.0843282621282   -0.0144982258823   
Al   -0.245164012934   -0.398722245199   0.215761196069   
Al   -0.373257578359   0.00794136071084   0.288304630654   
Al   -0.11904894561   -0.270529845462   0.554396712323   
Al   -0.0717700897989   -0.263706081721   0.654466935919   
Al   -0.253964773767   0.0727339220786   -0.207992602576   
Al   -0.0052508768631   0.431211826473   -0.392653934919   
Al   -0.0795008582027   0.103586956243   0.145577343466   
Al   -0.175801570115   0.401500595015   -0.0882287059123   
Al   -0.26780755136   0.215081744484   0.15631541395   
Al   -0.0929323383859   0.595839436506   0.0658115326863   
Al   0.0767596822946   0.286372328636   0.564075418971   
Al   -0.0887079447516   0.612403768774   0.609364029969   
Al   0.280191235324   -0.266560949518   -0.211411734497   
Al   0.56952515362   -0.0049027193002   -0.458060711057   
Al   0.626863689472   -0.226550656838   0.0710154033578   
Al   0.185507487788   -0.00343387148167   0.0140720284874   
Al   0.302136525101   -0.16922423259   0.304669746044   
Al   0.392722589774   0.0829343579407   0.301025983407   
Al   0.395951889558   -0.352235910134   0.499892609025   
Al   0.173955199561   0.0065266670689   0.475321704623   
Al   -0.141257494271   0.133518092476   -0.230615676665   
Al   0.440709805515   0.395466022138   -0.400611990511   
Al   0.282285671564   0.431838375644   0.132080922715   
Al   0.4861803921   0.357873936692   -0.080170767723   
Al   0.104140491053   0.140694300004   -0.110142214013   
Al   0.430135902952   0.428490327368   0.380027198021   
Al   0.362159884686   0.224369947813   0.736953814293   
Al   0.119911513095   0.534042441387   0.487135207751   
K_POINTS automatic
3 3 3 1 1 1 
CELL_PARAMETERS alat
1.0 0.0 0.0 
0.0 1.0 0.0 
0.0 0.0 1.0