! Edited 19:27   19/7/2021
&CONTROL 
calculation = "scf", 
disk_io = 'low', 
etot_conv_thr = 1.0E-4, 
forc_conv_thr = 1.0D-3, 
nstep = 40, 
outdir = "/scratch", 
prefix = "NwqsjGevlpkexMdR", 
pseudo_dir = "/opt/pp", 
restart_mode = 'from_scratch', 
tprnfor = .true., 
tstress = .true., 
/ 
&SYSTEM 
celldm(1) = 15.2741088, 
degauss = 0.02, 
ecutrho = 200, 
ecutwfc = 50, 
ibrav = 0, 
nat = 32, 
nspin = 1, 
ntyp = 1, 
occupations = 'smearing', 
smearing = 'mv', 
starting_magnetization(1) = 0, 
/ 
&ELECTRONS 
conv_thr = 1.0D-6, 
diagonalization = 'david', 
mixing_beta = 1.0000000E-01, 
mixing_mode = 'TF', 
mixing_ndim = 10, 
/ 
&IONS 
ion_dynamics = 'bfgs', 
/ 
&CELL 
cell_dynamics = 'bfgs', 
cell_factor = 2.0, 
press = 0.0, 
/ 
ATOMIC_SPECIES 
Al 26.982 Al.pbe-nl-kjpaw_psl.1.0.0.UPF 
ATOMIC_POSITIONS crystal
Al   -0.114146670117   -0.448506364448   -0.0840914025299   
Al   0.137287470679   0.158426939872   -0.268106842571   
Al   -0.012750617944   -0.140134549483   0.251009241754   
Al   -0.240452594302   -0.234827462202   0.0812456145706   
Al   -0.458436471214   -0.303013189131   0.291045578259   
Al   0.216810949392   -0.0534756193374   0.160996400569   
Al   0.141277833575   -0.0532959842208   0.536357134104   
Al   -0.122922971974   0.0181020127107   0.532473172244   
Al   -0.336013844654   0.373845599747   -0.242496932748   
Al   -0.17052356489   0.497432349583   -0.411783237722   
Al   0.0495296848512   0.223148488765   -0.232108258312   
Al   -0.193443964825   0.489608912671   -0.127101054177   
Al   -0.126024251131   0.308706403397   0.137297234759   
Al   -0.0961645576555   0.519165247757   0.324956575952   
Al   0.111795414807   0.307823598927   0.57847554578   
Al   -0.477958248959   0.339654245067   0.190624995607   
Al   0.34745427625   -0.284688028313   -0.273850383859   
Al   0.381434295108   -0.0201904162236   -0.257684310028   
Al   0.444152647889   -0.0579876433572   -0.134215663505   
Al   0.348273383516   0.176262784253   -0.0447310643145   
Al   0.280669087711   -0.0699842894692   0.488825870903   
Al   0.442310326726   0.105504420433   -0.0470932826209   
Al   0.717689240922   -0.260775976944   0.368486071337   
Al   0.28441540016   -0.205435573456   0.537103350939   
Al   0.224432043475   0.221339178772   -0.0349856944542   
Al   0.426053817138   0.498973817752   -0.150095586053   
Al   0.662452679358   0.51629067824   0.221872763206   
Al   0.153565379762   0.465879797175   -0.00792902834891   
Al   0.192505684913   0.286519812136   0.311397260186   
Al   0.524575479163   0.523211677336   0.0396465125   
Al   0.508624450322   0.308998693414   0.604997201401   
Al   0.212008191249   0.55401875423   0.666851095283   
K_POINTS automatic
3 3 3 1 1 1 
CELL_PARAMETERS alat
1.0 0.0 0.0 
0.0 1.0 0.0 
0.0 0.0 1.0