! Edited 19:27   19/7/2021
&CONTROL 
calculation = "scf", 
disk_io = 'low', 
etot_conv_thr = 1.0E-4, 
forc_conv_thr = 1.0D-3, 
nstep = 40, 
outdir = "/scratch", 
prefix = "ZHFvKYwHuAgbSxey", 
pseudo_dir = "/opt/pp", 
restart_mode = 'from_scratch', 
tprnfor = .true., 
tstress = .true., 
/ 
&SYSTEM 
celldm(1) = 15.2741088, 
degauss = 0.02, 
ecutrho = 200, 
ecutwfc = 50, 
ibrav = 0, 
nat = 32, 
nspin = 1, 
ntyp = 1, 
occupations = 'smearing', 
smearing = 'mv', 
starting_magnetization(1) = 0, 
/ 
&ELECTRONS 
conv_thr = 1.0D-6, 
diagonalization = 'david', 
mixing_beta = 1.0000000E-01, 
mixing_mode = 'TF', 
mixing_ndim = 10, 
/ 
&IONS 
ion_dynamics = 'bfgs', 
/ 
&CELL 
cell_dynamics = 'bfgs', 
cell_factor = 2.0, 
press = 0.0, 
/ 
ATOMIC_SPECIES 
Al 26.982 Al.pbe-nl-kjpaw_psl.1.0.0.UPF 
ATOMIC_POSITIONS crystal
Al   -0.141691011744   -0.422988741991   -0.315939409157   
Al   0.277327327399   0.0218659728504   -0.273192128031   
Al   -0.0311175573482   -0.261675665037   0.0916520769081   
Al   -0.380724469499   0.0158511716557   0.0478315431682   
Al   -0.148519055372   -0.385176609788   0.0169715085375   
Al   0.16376378792   0.120926231023   0.234330001147   
Al   -0.14720552986   -0.322304612003   0.515452269406   
Al   -0.0443997899425   -0.031097027457   0.792466824965   
Al   -0.148837423606   0.117324218248   -0.287299828371   
Al   0.022873490002   0.195992837914   -0.259569343926   
Al   0.0403294011385   0.0659282991189   0.0313297719404   
Al   -0.299723245384   0.469107734177   0.107082137562   
Al   -0.00861661939907   0.162607208789   0.0640270998982   
Al   -0.157574259223   0.375686790651   0.0785347930757   
Al   0.134166907896   0.329034232649   0.266334650155   
Al   -0.248592225944   0.460400902643   0.642189698305   
Al   0.153246663832   -0.400603129191   -0.166674975348   
Al   0.35883771131   -0.10617844348   -0.439391097158   
Al   0.570517478496   -0.25905826454   -0.0958647866937   
Al   0.333051182922   -0.0148176984883   -0.0944388945633   
Al   0.201457067263   -0.0433836894826   0.163452766854   
Al   0.611013594917   -0.122133084321   0.126714828685   
Al   0.372438138154   -0.423172743112   0.368465394511   
Al   0.12469253657   -0.0648233286825   0.452358667858   
Al   0.0676784831607   0.155010302618   -0.398562805511   
Al   0.554079640673   0.489414912667   -0.435537065609   
Al   0.538360453495   0.201692545424   0.130109802382   
Al   0.433277325541   0.406866448005   0.0273322004811   
Al   0.18143360764   0.222962584308   0.0837958828738   
Al   0.396810157596   0.6398841537   0.357140408937   
Al   0.443576889065   0.0187811387549   0.45288423837   
Al   0.2279143505   0.45355843434   0.41330204949   
K_POINTS automatic
3 3 3 1 1 1 
CELL_PARAMETERS alat
1.0 0.0 0.0 
0.0 1.0 0.0 
0.0 0.0 1.0