! Edited 19:27   19/7/2021
&CONTROL 
calculation = "scf", 
disk_io = 'low', 
etot_conv_thr = 1.0E-4, 
forc_conv_thr = 1.0D-3, 
nstep = 40, 
outdir = "/scratch", 
prefix = "nflKiUpHGGAZzAgV", 
pseudo_dir = "/opt/pp", 
restart_mode = 'from_scratch', 
tprnfor = .true., 
tstress = .true., 
/ 
&SYSTEM 
celldm(1) = 15.2741088, 
degauss = 0.02, 
ecutrho = 200, 
ecutwfc = 50, 
ibrav = 0, 
nat = 32, 
nspin = 1, 
ntyp = 1, 
occupations = 'smearing', 
smearing = 'mv', 
starting_magnetization(1) = 0, 
/ 
&ELECTRONS 
conv_thr = 1.0D-6, 
diagonalization = 'david', 
mixing_beta = 1.0000000E-01, 
mixing_mode = 'TF', 
mixing_ndim = 10, 
/ 
&IONS 
ion_dynamics = 'bfgs', 
/ 
&CELL 
cell_dynamics = 'bfgs', 
cell_factor = 2.0, 
press = 0.0, 
/ 
ATOMIC_SPECIES 
Al 26.982 Al.pbe-nl-kjpaw_psl.1.0.0.UPF 
ATOMIC_POSITIONS crystal
Al   -0.2875975729   -0.272204803576   -0.317994855353   
Al   -0.0287981956197   -0.010703639522   -0.501362348866   
Al   -0.0983588005385   -0.456368671731   0.0856108397504   
Al   -0.306103879234   0.0807804547495   0.0366737802171   
Al   -0.305394964833   -0.0767929482103   0.219770921487   
Al   -0.0234867525764   -0.0386885765362   0.143381808696   
Al   -0.132217046832   -0.470634402379   0.438135599962   
Al   -0.146012076414   -0.0787677527143   0.409583988211   
Al   -0.165786259671   0.324975247712   -0.387259629674   
Al   -0.0441048778834   0.168336385799   -0.330947039492   
Al   -0.015613574251   0.372802755326   0.139755685556   
Al   -0.0382640938907   0.264479931366   0.085093098361   
Al   -0.27517331749   0.173167660398   0.127431548758   
Al   -0.26059743116   0.517189123414   0.265968843172   
Al   -0.18680377536   0.24038342359   0.639164732777   
Al   -0.095262055383   0.64448125551   0.489575784386   
Al   0.147502318947   -0.451079435419   -0.372230453597   
Al   0.620941204721   -0.0758328126629   -0.229705376213   
Al   0.709026011485   -0.176246609294   0.175149262078   
Al   0.267309116038   -0.0867336417381   -0.0423091038886   
Al   -0.214824040629   -0.0638563707779   0.259953949042   
Al   0.433540441447   0.0509167701306   0.325045667169   
Al   0.259641632173   -0.208588230929   0.546035230991   
Al   0.0791365932044   0.160790831702   0.440529767195   
Al   0.269894493258   0.0342724962973   -0.395735980059   
Al   0.548620038412   0.374779226859   -0.332714226279   
Al   0.634807207702   0.107754053738   -0.0931492207568   
Al   0.167050069459   0.256586132954   0.12549993599   
Al   0.0788191557852   0.35856409175   0.261183682692   
Al   0.420418598678   0.922310432862   0.00388812909643   
Al   0.527517449101   0.434712339071   0.466135381961   
Al   0.225060975166   0.666427516367   0.351894345363   
K_POINTS automatic
3 3 3 1 1 1 
CELL_PARAMETERS alat
1.0 0.0 0.0 
0.0 1.0 0.0 
0.0 0.0 1.0