! Edited 19:27   19/7/2021
&CONTROL 
calculation = "scf", 
disk_io = 'low', 
etot_conv_thr = 1.0E-4, 
forc_conv_thr = 1.0D-3, 
nstep = 40, 
outdir = "/scratch", 
prefix = "VjnZaKUxotwvsVHT", 
pseudo_dir = "/opt/pp", 
restart_mode = 'from_scratch', 
tprnfor = .true., 
tstress = .true., 
/ 
&SYSTEM 
celldm(1) = 15.2741088, 
degauss = 0.02, 
ecutrho = 200, 
ecutwfc = 50, 
ibrav = 0, 
nat = 32, 
nspin = 1, 
ntyp = 1, 
occupations = 'smearing', 
smearing = 'mv', 
starting_magnetization(1) = 0, 
/ 
&ELECTRONS 
conv_thr = 1.0D-6, 
diagonalization = 'david', 
mixing_beta = 1.0000000E-01, 
mixing_mode = 'TF', 
mixing_ndim = 10, 
/ 
&IONS 
ion_dynamics = 'bfgs', 
/ 
&CELL 
cell_dynamics = 'bfgs', 
cell_factor = 2.0, 
press = 0.0, 
/ 
ATOMIC_SPECIES 
Al 26.982 Al.pbe-nl-kjpaw_psl.1.0.0.UPF 
ATOMIC_POSITIONS crystal
Al   -0.299484683151   -0.344259215755   -0.400955302909   
Al   -0.00680293622284   -0.139547625453   -0.208632646453   
Al   -0.18018770909   -0.002765267019   0.142926582292   
Al   -0.257745889613   0.0476710818276   0.0753412144501   
Al   -0.352648915375   -0.288647103354   0.149481674247   
Al   0.0439119799243   -0.0241173141656   0.073541116984   
Al   -0.214595412458   -0.301720085676   0.538691243913   
Al   -0.239204433508   -0.181258463497   0.336856928286   
Al   -0.175084014655   0.273911454673   -0.357322884279   
Al   0.241830309386   0.301293671625   -0.242484571655   
Al   0.161842626019   0.270653094274   0.14679895005   
Al   -0.22707924997   0.54935271079   -0.180911036994   
Al   -0.511342505169   0.433010439446   -0.175244363603   
Al   -0.119190304351   0.498940529628   0.145419189545   
Al   0.000472031063599   0.125403087264   0.632620581011   
Al   -0.4333326127   0.192326561897   0.557550173087   
Al   0.00173777700954   -0.390793504595   -0.394172710168   
Al   0.622330994542   0.0226695994162   -0.23302840321   
Al   0.822019166467   -0.25248544134   -0.110336534101   
Al   0.275883683394   -0.258186711975   -0.146112912012   
Al   0.431293420431   -0.182958947067   0.438173232291   
Al   0.521487220376   0.000337870467132   0.19075540645   
Al   0.497749546711   -0.307233904966   0.308137432593   
Al   0.0630999238172   0.199396634155   0.62159787791   
Al   0.246284602241   0.22659035   -0.237185116876   
Al   0.411427992264   0.349992687773   -0.535726822152   
Al   0.673067833218   0.185936534186   0.112476607543   
Al   0.148620474528   0.630281695739   0.133999258105   
Al   0.211974282635   0.194600113854   0.206167868185   
Al   0.357546354955   0.595748714715   0.288348475779   
Al   0.627449659164   0.255320865089   0.582929665595   
Al   0.171974230628   0.262149891367   0.603203067538   
K_POINTS automatic
3 3 3 1 1 1 
CELL_PARAMETERS alat
1.0 0.0 0.0 
0.0 1.0 0.0 
0.0 0.0 1.0