! Edited 19:27   19/7/2021
&CONTROL 
calculation = "scf", 
disk_io = 'low', 
etot_conv_thr = 1.0E-4, 
forc_conv_thr = 1.0D-3, 
nstep = 40, 
outdir = "/scratch", 
prefix = "TqmTybwxqJrisIZB", 
pseudo_dir = "/opt/pp", 
restart_mode = 'from_scratch', 
tprnfor = .true., 
tstress = .true., 
/ 
&SYSTEM 
celldm(1) = 15.2741088, 
degauss = 0.02, 
ecutrho = 200, 
ecutwfc = 50, 
ibrav = 0, 
nat = 32, 
nspin = 1, 
ntyp = 1, 
occupations = 'smearing', 
smearing = 'mv', 
starting_magnetization(1) = 0, 
/ 
&ELECTRONS 
conv_thr = 1.0D-6, 
diagonalization = 'david', 
mixing_beta = 1.0000000E-01, 
mixing_mode = 'TF', 
mixing_ndim = 10, 
/ 
&IONS 
ion_dynamics = 'bfgs', 
/ 
&CELL 
cell_dynamics = 'bfgs', 
cell_factor = 2.0, 
press = 0.0, 
/ 
ATOMIC_SPECIES 
Al 26.982 Al.pbe-nl-kjpaw_psl.1.0.0.UPF 
ATOMIC_POSITIONS crystal
Al   -0.192458557148   -0.133678453116   -0.194064287536   
Al   0.265220674738   -0.0445862402062   -0.185415859198   
Al   0.0757029511972   -0.176839019899   -0.096444549798   
Al   -0.296737825212   0.115811686299   -0.0959038021254   
Al   -0.317453265968   -0.438662258449   0.232630702222   
Al   -0.205966494026   0.311922163751   -0.0506755677958   
Al   -0.0102749304771   -0.253172443242   0.561500316709   
Al   -0.304803547378   0.314453383556   0.696074351256   
Al   -0.264202825445   0.184270658812   -0.230584246757   
Al   -0.122249278767   0.406869299194   -0.352091850131   
Al   0.0193118507264   0.209932710391   -0.0757192349301   
Al   -0.28157645441   0.641775257101   -0.0350469479473   
Al   -0.293917511911   0.331139388881   0.369783880064   
Al   0.203873617948   0.622356962884   0.243883874653   
Al   0.115425042612   0.207861036728   0.470792774552   
Al   -0.0944207261213   0.45046606164   0.481242518634   
Al   0.152579210083   -0.154927992095   -0.198050652061   
Al   0.532670115548   -0.159698713252   -0.303163783425   
Al   0.800884309669   -0.120033168957   0.0931341593578   
Al   0.167071072337   0.100213756601   -0.0243741732209   
Al   0.0995585594747   -0.288629662102   0.268455132358   
Al   0.42299776564   -0.0779158855578   0.303287004497   
Al   0.549687290245   -0.316305621009   0.526557688884   
Al   0.282656527761   -0.0152796638234   0.465962945469   
Al   0.0830515126473   0.371370344395   -0.232260901447   
Al   0.403754451674   0.527124165132   -0.421171338953   
Al   0.468571142137   0.375688164064   0.180532812464   
Al   -0.0375736426672   0.293457931746   -0.102214655362   
Al   0.289903434117   0.322683020389   0.225198081942   
Al   0.531530006521   0.456707869026   0.530295093929   
Al   0.499001783642   0.130898903857   0.714552990622   
Al   0.628617222988   0.144599875502   0.526928634106   
K_POINTS automatic
3 3 3 1 1 1 
CELL_PARAMETERS alat
1.0 0.0 0.0 
0.0 1.0 0.0 
0.0 0.0 1.0