! Edited 19:27   19/7/2021
&CONTROL 
calculation = "scf", 
disk_io = 'low', 
etot_conv_thr = 1.0E-4, 
forc_conv_thr = 1.0D-3, 
nstep = 40, 
outdir = "/scratch", 
prefix = "qeeuJpvYtBaDycKe", 
pseudo_dir = "/opt/pp", 
restart_mode = 'from_scratch', 
tprnfor = .true., 
tstress = .true., 
/ 
&SYSTEM 
celldm(1) = 15.2741088, 
degauss = 0.02, 
ecutrho = 200, 
ecutwfc = 50, 
ibrav = 0, 
nat = 32, 
nspin = 1, 
ntyp = 1, 
occupations = 'smearing', 
smearing = 'mv', 
starting_magnetization(1) = 0, 
/ 
&ELECTRONS 
conv_thr = 1.0D-6, 
diagonalization = 'david', 
mixing_beta = 1.0000000E-01, 
mixing_mode = 'TF', 
mixing_ndim = 10, 
/ 
&IONS 
ion_dynamics = 'bfgs', 
/ 
&CELL 
cell_dynamics = 'bfgs', 
cell_factor = 2.0, 
press = 0.0, 
/ 
ATOMIC_SPECIES 
Al 26.982 Al.pbe-nl-kjpaw_psl.1.0.0.UPF 
ATOMIC_POSITIONS crystal
Al   0.00451713497649   -0.099850505963   -0.389511381157   
Al   0.0529663528818   -0.0224187136577   -0.0682327530385   
Al   -0.11399412985   -0.346466325909   -0.195876268086   
Al   -0.23875688489   0.0287615212294   0.144410621557   
Al   -0.364492998013   -0.313852586481   0.00874649476133   
Al   0.0211165034238   0.0443277572768   0.0920739146991   
Al   0.305914786589   -0.161964065351   0.473983700703   
Al   -0.464129920376   0.0174903281124   0.441170940673   
Al   -0.307606834564   0.0677516037185   -0.381736158423   
Al   0.0145521566455   0.553643049724   -0.412356067677   
Al   0.278472392136   0.0223935302338   -0.210959764999   
Al   -0.328765970179   0.44104222525   0.0472777607597   
Al   -0.229870592676   0.531386324974   -0.0734226824949   
Al   0.0803833461766   0.597158697333   0.33129849611   
Al   -0.183303131394   -0.176455831281   0.618966157242   
Al   -0.326179182472   0.668747534005   0.465770113532   
Al   0.397916090187   -0.155259055099   -0.0619775033555   
Al   0.716400915389   -0.0658126113109   -0.23246763118   
Al   0.417645771775   -0.260693262551   0.188859545664   
Al   0.479252061823   -0.280830759313   -0.278634772322   
Al   0.469884076752   -0.26946487616   0.328391671482   
Al   0.652387737163   -0.100870371272   0.427180836684   
Al   0.525884299137   -0.416701026892   0.335117837229   
Al   0.25681398911   0.0256454186052   0.633181986434   
Al   0.13317040971   0.145506674514   -0.357823615251   
Al   0.554479082313   0.426577750431   -0.0541589780883   
Al   0.350303906574   0.148124604521   -0.150748417965   
Al   0.458812998384   0.5317136503   -0.179012192129   
Al   0.206280975171   0.217761290496   0.190420112786   
Al   0.839748731685   0.372225330007   0.446209108283   
Al   0.710669719272   0.218834113887   0.0574804812686   
Al   0.292973512676   0.587339102313   0.401159710222   
K_POINTS automatic
3 3 3 1 1 1 
CELL_PARAMETERS alat
1.0 0.0 0.0 
0.0 1.0 0.0 
0.0 0.0 1.0