! Edited 19:27   19/7/2021
&CONTROL 
calculation = "scf", 
disk_io = 'low', 
etot_conv_thr = 1.0E-4, 
forc_conv_thr = 1.0D-3, 
nstep = 40, 
outdir = "/scratch", 
prefix = "lUzTAiRSTwGCcMrC", 
pseudo_dir = "/opt/pp", 
restart_mode = 'from_scratch', 
tprnfor = .true., 
tstress = .true., 
/ 
&SYSTEM 
celldm(1) = 15.2741088, 
degauss = 0.02, 
ecutrho = 200, 
ecutwfc = 50, 
ibrav = 0, 
nat = 32, 
nspin = 1, 
ntyp = 1, 
occupations = 'smearing', 
smearing = 'mv', 
starting_magnetization(1) = 0, 
/ 
&ELECTRONS 
conv_thr = 1.0D-6, 
diagonalization = 'david', 
mixing_beta = 1.0000000E-01, 
mixing_mode = 'TF', 
mixing_ndim = 10, 
/ 
&IONS 
ion_dynamics = 'bfgs', 
/ 
&CELL 
cell_dynamics = 'bfgs', 
cell_factor = 2.0, 
press = 0.0, 
/ 
ATOMIC_SPECIES 
Al 26.982 Al.pbe-nl-kjpaw_psl.1.0.0.UPF 
ATOMIC_POSITIONS crystal
Al   -0.053725649891   -0.396870303546   -0.120129059171   
Al   -0.0516023127337   0.0794817828129   -0.468845857077   
Al   0.0880332026129   -0.381109193217   -0.0608688699882   
Al   -0.0447292577768   -0.12571058543   -0.122894628473   
Al   -0.41514535305   -0.0613250466576   0.296716637482   
Al   0.148631939047   0.0341967218181   0.256073145029   
Al   0.254941572559   -0.0962572917916   0.375784181839   
Al   -0.0998171197439   -0.157042988051   0.404236455892   
Al   -0.282625991069   0.343406849028   -0.0934378808583   
Al   0.229567479075   0.505453292072   -0.476011253516   
Al   -0.0696136746688   0.0792328220173   0.185012880894   
Al   -0.137334837342   0.534131297061   0.0679084022326   
Al   -0.230242974273   0.360062842286   0.491055369394   
Al   0.0222298991284   0.56727826892   0.0195470457646   
Al   -0.323116380948   0.336204247504   0.410148425691   
Al   -0.140531794764   0.489621533125   0.41014203889   
Al   0.120275022671   -0.0363679644202   -0.25104653638   
Al   0.547091443999   -0.134857658267   -0.0651244348032   
Al   0.530650598421   -0.483465232296   -0.00739416843354   
Al   0.164696178737   -0.0809915528091   -0.0618647034049   
Al   0.449537100487   -0.458472871588   0.287544651885   
Al   0.263684975578   0.076223137417   0.273256341941   
Al   0.618867655234   -0.341615859545   0.586351367221   
Al   0.160636926166   -0.0390386444528   0.381248792525   
Al   0.229040838145   0.115634800478   0.00183931060554   
Al   0.457745945429   0.592421568391   0.0246448947654   
Al   0.531422062674   0.29171991317   0.12802135278   
Al   0.319211754437   0.282683038191   0.0862100132075   
Al   0.314780381955   0.0981702648852   0.156837813469   
Al   0.452705652481   0.454792951344   0.0811650333368   
Al   0.445528987135   0.367639983223   0.553030572433   
Al   0.184039031768   0.395837130435   0.480646856462   
K_POINTS automatic
3 3 3 1 1 1 
CELL_PARAMETERS alat
1.0 0.0 0.0 
0.0 1.0 0.0 
0.0 0.0 1.0