! Edited 19:27   19/7/2021
&CONTROL 
calculation = "scf", 
disk_io = 'low', 
etot_conv_thr = 1.0E-4, 
forc_conv_thr = 1.0D-3, 
nstep = 40, 
outdir = "/scratch", 
prefix = "fzCvIFnDjeIHScOR", 
pseudo_dir = "/opt/pp", 
restart_mode = 'from_scratch', 
tprnfor = .true., 
tstress = .true., 
/ 
&SYSTEM 
celldm(1) = 15.2741088, 
degauss = 0.02, 
ecutrho = 200, 
ecutwfc = 50, 
ibrav = 0, 
nat = 32, 
nspin = 1, 
ntyp = 1, 
occupations = 'smearing', 
smearing = 'mv', 
starting_magnetization(1) = 0, 
/ 
&ELECTRONS 
conv_thr = 1.0D-6, 
diagonalization = 'david', 
mixing_beta = 1.0000000E-01, 
mixing_mode = 'TF', 
mixing_ndim = 10, 
/ 
&IONS 
ion_dynamics = 'bfgs', 
/ 
&CELL 
cell_dynamics = 'bfgs', 
cell_factor = 2.0, 
press = 0.0, 
/ 
ATOMIC_SPECIES 
Al 26.982 Al.pbe-nl-kjpaw_psl.1.0.0.UPF 
ATOMIC_POSITIONS crystal
Al   -0.246734179827   -0.327800170306   -0.340041435048   
Al   -0.115309486328   -0.0206498052049   -0.367470527643   
Al   0.020528480562   -0.264500404376   0.0236325771113   
Al   -0.42603000837   -0.012806520116   -0.0841412703652   
Al   -0.256222754199   -0.138986118053   0.284774930607   
Al   0.0960299237073   0.0662430048106   0.276066878215   
Al   -0.0388124726045   -0.345806727125   0.495214943064   
Al   -0.435331571398   -0.165969411343   0.431614167041   
Al   -0.201817749197   0.259592732533   -0.368491403065   
Al   -0.0358307988706   0.364208190795   -0.312993866571   
Al   -0.00480491647957   -0.103089488763   0.207392758492   
Al   -0.485731105591   0.528046567954   0.0808677699765   
Al   -0.295354876332   0.0721903774361   -0.00699021079782   
Al   0.0728627940838   0.472534351844   0.195393635492   
Al   0.0838723600115   -0.232850758223   0.716497915205   
Al   -0.079850592764   0.351760842031   0.667676307954   
Al   0.0919262894668   -0.427318122042   -0.339941382186   
Al   0.491764941206   -0.0689860458371   -0.0531573350477   
Al   0.65138031532   -0.334161111739   0.0485646675327   
Al   0.149291448664   -0.090645333768   -0.0461199245199   
Al   0.442037535132   -0.0725552390161   0.120853456077   
Al   0.518096617761   -0.150191722194   0.256127110799   
Al   0.373332288123   -0.263597134936   0.773947932995   
Al   -0.113384672788   -0.0380344649111   0.339300828892   
Al   0.360569376774   0.220635162483   -0.273239808732   
Al   0.464274795798   0.577516589712   -0.38284611894   
Al   0.576115814316   0.160843945096   0.0821887791292   
Al   0.237225453634   0.541748174428   0.17185228433   
Al   0.224333417387   0.283351194077   0.143759342883   
Al   0.425965208537   0.572601536405   0.204623481708   
Al   0.366067872096   0.316997910098   0.364979587243   
Al   0.184626415759   0.543325973608   0.374320632348   
K_POINTS automatic
3 3 3 1 1 1 
CELL_PARAMETERS alat
1.0 0.0 0.0 
0.0 1.0 0.0 
0.0 0.0 1.0