! Edited 19:27   19/7/2021
&CONTROL 
calculation = "scf", 
disk_io = 'low', 
etot_conv_thr = 1.0E-4, 
forc_conv_thr = 1.0D-3, 
nstep = 40, 
outdir = "/scratch", 
prefix = "hDujjcwcoTsgjYaa", 
pseudo_dir = "/opt/pp", 
restart_mode = 'from_scratch', 
tprnfor = .true., 
tstress = .true., 
/ 
&SYSTEM 
celldm(1) = 15.2741088, 
degauss = 0.02, 
ecutrho = 200, 
ecutwfc = 50, 
ibrav = 0, 
nat = 32, 
nspin = 1, 
ntyp = 1, 
occupations = 'smearing', 
smearing = 'mv', 
starting_magnetization(1) = 0, 
/ 
&ELECTRONS 
conv_thr = 1.0D-6, 
diagonalization = 'david', 
mixing_beta = 1.0000000E-01, 
mixing_mode = 'TF', 
mixing_ndim = 10, 
/ 
&IONS 
ion_dynamics = 'bfgs', 
/ 
&CELL 
cell_dynamics = 'bfgs', 
cell_factor = 2.0, 
press = 0.0, 
/ 
ATOMIC_SPECIES 
Al 26.982 Al.pbe-nl-kjpaw_psl.1.0.0.UPF 
ATOMIC_POSITIONS crystal
Al   -0.112735306222   -0.37537886817   -0.0493061779249   
Al   -0.0509676867887   -0.0611372954506   -0.479116667984   
Al   0.0559482009043   -0.307459269767   -0.16947049501   
Al   -0.318799784541   0.0368561391111   -0.0380695028311   
Al   -0.403726401008   -0.236243976604   0.149007892803   
Al   -0.00141566706089   -0.073887655983   0.284480414381   
Al   0.0164080001337   -0.284430357633   0.373667228254   
Al   -0.378973334726   -0.265067387957   0.57474088137   
Al   -0.411327795783   0.077828091216   -0.327130411209   
Al   -0.166040800208   0.687719151559   -0.42782580796   
Al   0.147270182616   0.102268626503   -0.285715965982   
Al   0.00420516134196   0.289045943216   -0.0159621589465   
Al   -0.157889592863   0.255951302487   0.194545847254   
Al   -0.137836613818   0.16678299058   0.216390023752   
Al   -0.0745714139568   0.368187826438   0.198816712781   
Al   -0.277832011186   0.480384622354   0.483589436481   
Al   0.17372105238   -0.262802398417   -0.270824491052   
Al   0.324967684288   0.0661178839929   -0.237592689117   
Al   0.522382333233   -0.299572684903   0.0383945260354   
Al   0.175205251447   -0.166598090014   -0.0623897040977   
Al   0.36930176541   -0.446980471849   0.0566889317215   
Al   0.354384372297   0.0293254169571   0.275760026505   
Al   0.510126845165   -0.125568670454   0.438645804138   
Al   0.341495676021   -0.0837634944483   0.364661562227   
Al   0.0980329421605   0.0998128941588   -0.367177110512   
Al   0.545481421355   0.514058459822   -0.185777839682   
Al   0.694408647343   0.318665283766   -0.0387671012682   
Al   0.45123927737   0.371595022884   0.0173819093072   
Al   0.171145469302   0.246133828075   0.225804385125   
Al   0.163869069928   0.218207109074   0.435723535667   
Al   0.379917868066   0.0992277360217   0.491491054895   
Al   0.305193568184   0.581425238446   0.634849591868   
K_POINTS automatic
3 3 3 1 1 1 
CELL_PARAMETERS alat
1.0 0.0 0.0 
0.0 1.0 0.0 
0.0 0.0 1.0