! Edited 0:44   19/7/2021
&CONTROL 
calculation = "scf", 
disk_io = 'low', 
etot_conv_thr = 1.0E-4, 
forc_conv_thr = 1.0D-3, 
nstep = 40, 
outdir = "/scratch", 
prefix = "RlLckEmHImHvsLsA", 
pseudo_dir = "/opt/pp", 
restart_mode = 'from_scratch', 
tprnfor = .true., 
tstress = .true., 
/ 
&SYSTEM 
celldm(1) = 15.27580845, 
degauss = 0.02, 
ecutrho = 200, 
ecutwfc = 50, 
ibrav = 0, 
nat = 32, 
nspin = 1, 
ntyp = 1, 
occupations = 'smearing', 
smearing = 'mv', 
starting_magnetization(1) = 0, 
/ 
&ELECTRONS 
conv_thr = 1.0D-6, 
diagonalization = 'david', 
mixing_beta = 1.0000000E-01, 
mixing_mode = 'TF', 
mixing_ndim = 10, 
/ 
&IONS 
ion_dynamics = 'bfgs', 
/ 
&CELL 
cell_dynamics = 'bfgs', 
cell_factor = 2.0, 
press = 0.0, 
/ 
ATOMIC_SPECIES 
Al 26.982 Al.pbe-nl-kjpaw_psl.1.0.0.UPF 
ATOMIC_POSITIONS crystal
Al   -0.000359982855948   -0.000317809076996   -0.000259300956003   
Al   0.249752259921   0.249482761917   -0.000257015512664   
Al   0.249579847269   -0.000296830696484   0.249968085831   
Al   -0.000347312084624   0.249891326046   0.249856319686   
Al   -7.15873072044e-05   -7.52711502591e-05   0.499553706876   
Al   0.249792072388   0.24950531731   0.499676270042   
Al   0.249700462971   -0.000173478626644   0.749560748444   
Al   -0.000272412918375   0.249786285331   0.749882735541   
Al   -8.99273485041e-05   0.499780447044   -0.000342747468281   
Al   0.249812244453   0.749848842868   7.79264866598e-05   
Al   0.249861720981   0.49978149977   0.249923659145   
Al   -0.000288989766293   0.749718215353   0.249698013098   
Al   -0.000217195673111   0.499828802642   0.499771666081   
Al   0.249636730774   0.749735910284   0.499543365664   
Al   0.250009152057   0.499462113439   0.749368796536   
Al   -0.000655217480197   0.749378289732   0.749665834807   
Al   0.499876309071   -0.000427691201544   -0.000366031674191   
Al   0.749585053119   0.249766730978   -0.00056039914309   
Al   0.749308184789   -0.000423180147005   0.249749786905   
Al   0.499647841695   0.249634062481   0.249504448672   
Al   0.499593833338   -3.44804977146e-05   0.499645275827   
Al   0.749741026134   0.249368610236   0.49962497743   
Al   0.7497084161   -0.000395946197   0.749698337162   
Al   0.499684069925   0.249559117978   0.749667520962   
Al   0.49952531538   0.49978825103   -0.000546486690935   
Al   0.749445078567   0.749770473972   -5.37650899735e-05   
Al   0.74977335187   0.49947453386   0.249618880942   
Al   0.499760421326   0.749463551888   0.249881877134   
Al   0.499348892926   0.499775338994   0.499713078949   
Al   0.74983840651   0.749659917243   0.499527383737   
Al   0.749619851809   0.499682141388   0.749811989027   
Al   0.499686877181   0.749621338237   0.749590419834   
K_POINTS automatic
3 3 3 1 1 1 
CELL_PARAMETERS alat
1.0 0.0 0.0 
0.0 1.0 0.0 
0.0 0.0 1.0