! Edited 0:44   19/7/2021
&CONTROL 
calculation = "scf", 
disk_io = 'low', 
etot_conv_thr = 1.0E-4, 
forc_conv_thr = 1.0D-3, 
nstep = 40, 
outdir = "/scratch", 
prefix = "mchOsKZIgoSmioml", 
pseudo_dir = "/opt/pp", 
restart_mode = 'from_scratch', 
tprnfor = .true., 
tstress = .true., 
/ 
&SYSTEM 
celldm(1) = 15.27601294, 
degauss = 0.02, 
ecutrho = 200, 
ecutwfc = 50, 
ibrav = 0, 
nat = 32, 
nspin = 1, 
ntyp = 1, 
occupations = 'smearing', 
smearing = 'mv', 
starting_magnetization(1) = 0, 
/ 
&ELECTRONS 
conv_thr = 1.0D-6, 
diagonalization = 'david', 
mixing_beta = 1.0000000E-01, 
mixing_mode = 'TF', 
mixing_ndim = 10, 
/ 
&IONS 
ion_dynamics = 'bfgs', 
/ 
&CELL 
cell_dynamics = 'bfgs', 
cell_factor = 2.0, 
press = 0.0, 
/ 
ATOMIC_SPECIES 
Al 26.982 Al.pbe-nl-kjpaw_psl.1.0.0.UPF 
ATOMIC_POSITIONS crystal
Al   -0.000359978037092   -0.000317804822694   -0.00025929748491   
Al   0.249752263238   0.249482768841   -0.000257012072166   
Al   0.249579852894   -0.000296826723005   0.249968086258   
Al   -0.000347307435384   0.249891327501   0.249856321609   
Al   -7.15863489119e-05   -7.52701426534e-05   0.49955371285   
Al   0.249792075171   0.249505323932   0.499676274375   
Al   0.249700466981   -0.000173476304399   0.749560754324   
Al   -0.000272409271762   0.249786288192   0.749882737111   
Al   -8.99261447055e-05   0.499780449983   -0.000342742880144   
Al   0.249812246966   0.749848844891   7.79254435089e-05   
Al   0.249861722832   0.499781502694   0.249923660167   
Al   -0.000288985897776   0.749718219125   0.249698017141   
Al   -0.000217192765654   0.499828804934   0.499771669138   
Al   0.249636735637   0.749735913819   0.499543371777   
Al   0.250009151934   0.499462120639   0.749368804986   
Al   -0.000655208709229   0.749378298054   0.74966583928   
Al   0.499876310727   -0.000427685476322   -0.000366026774364   
Al   0.749585058674   0.2497667341   -0.000560391641393   
Al   0.74930819405   -0.000423174482169   0.249749790254   
Al   0.499647846409   0.249634067379   0.249504455306   
Al   0.499593838775   -3.44800361467e-05   0.499645280575   
Al   0.749741029601   0.249368618688   0.49962498245   
Al   0.749708420003   -0.000395940896727   0.7496983412   
Al   0.499684074154   0.24955912388   0.749667525413   
Al   0.499525321734   0.499788253864   -0.000546479375475   
Al   0.749445085996   0.749770477045   -5.37643702554e-05   
Al   0.749773354904   0.499474540894   0.249618886044   
Al   0.499760424533   0.749463559069   0.249881878715   
Al   0.499348901642   0.499775342002   0.49971308279   
Al   0.749838408674   0.749659921796   0.499527390064   
Al   0.749619856898   0.499682145643   0.749811991543   
Al   0.499686881373   0.749621343306   0.749590425317   
K_POINTS automatic
3 3 3 1 1 1 
CELL_PARAMETERS alat
1.0 0.0 0.0 
0.0 1.0 0.0 
0.0 0.0 1.0