! Edited 0:44   19/7/2021
&CONTROL 
calculation = "scf", 
disk_io = 'low', 
etot_conv_thr = 1.0E-4, 
forc_conv_thr = 1.0D-3, 
nstep = 40, 
outdir = "/scratch", 
prefix = "gMuCueIhyhQXarqj", 
pseudo_dir = "/opt/pp", 
restart_mode = 'from_scratch', 
tprnfor = .true., 
tstress = .true., 
/ 
&SYSTEM 
celldm(1) = 15.28152738, 
degauss = 0.02, 
ecutrho = 200, 
ecutwfc = 50, 
ibrav = 0, 
nat = 32, 
nspin = 1, 
ntyp = 1, 
occupations = 'smearing', 
smearing = 'mv', 
starting_magnetization(1) = 0, 
/ 
&ELECTRONS 
conv_thr = 1.0D-6, 
diagonalization = 'david', 
mixing_beta = 1.0000000E-01, 
mixing_mode = 'TF', 
mixing_ndim = 10, 
/ 
&IONS 
ion_dynamics = 'bfgs', 
/ 
&CELL 
cell_dynamics = 'bfgs', 
cell_factor = 2.0, 
press = 0.0, 
/ 
ATOMIC_SPECIES 
Al 26.982 Al.pbe-nl-kjpaw_psl.1.0.0.UPF 
ATOMIC_POSITIONS crystal
Al   -0.000359848136642   -0.000317690140727   -0.000259203915702   
Al   0.249752352635   0.249482955488   -0.000256919327663   
Al   0.249580004506   -0.000296719611124   0.249968097774   
Al   -0.000347182107204   0.249891366716   0.249856373457   
Al   -7.15605165055e-05   -7.52429809258e-05   0.499553873895   
Al   0.249792150202   0.249505502439   0.499676391194   
Al   0.24970057507   -0.00017341370433   0.749560912829   
Al   -0.000272310971078   0.249786365311   0.749882779426   
Al   -8.98936942627e-05   0.499780529209   -0.000342619199114   
Al   0.249812314718   0.749848899437   7.78973235984e-05   
Al   0.249861772731   0.499781581541   0.249923687715   
Al   -0.000288881615308   0.749718320807   0.249698126113   
Al   -0.000217114390212   0.499828866711   0.499771751533   
Al   0.249636866723   0.749736009117   0.499543536554   
Al   0.250009148632   0.499462314737   0.749369032757   
Al   -0.000654972272842   0.7493785224   0.749665959864   
Al   0.499876355361   -0.000427531143195   -0.000365894691187   
Al   0.749585208408   0.249766818276   -0.000560189420371   
Al   0.749308443692   -0.000423021776865   0.249749880544   
Al   0.499647973486   0.249634199428   0.249504634127   
Al   0.499593985341   -3.44675937981e-05   0.499645408578   
Al   0.749741123052   0.249368846526   0.499625117778   
Al   0.749708525221   -0.000395798018842   0.749698450055   
Al   0.499684188158   0.249559282973   0.749667645389   
Al   0.499525493025   0.499788330274   -0.000546282174786   
Al   0.74944528624   0.74977055987   -5.37449690276e-05   
Al   0.74977343669   0.49947473051   0.249619023572   
Al   0.499760510985   0.749463752647   0.24988192134   
Al   0.499349136595   0.499775423071   0.499713186326   
Al   0.749838466985   0.749660044515   0.499527560608   
Al   0.749619994075   0.499682260343   0.749812059387   
Al   0.499686994364   0.749621479947   0.749590573115   
K_POINTS automatic
3 3 3 1 1 1 
CELL_PARAMETERS alat
1.0 0.0 0.0 
0.0 1.0 0.0 
0.0 0.0 1.0