! Edited 0:44   19/7/2021
&CONTROL 
calculation = "scf", 
disk_io = 'low', 
etot_conv_thr = 1.0E-4, 
forc_conv_thr = 1.0D-3, 
nstep = 40, 
outdir = "/scratch", 
prefix = "gMuCueIhyhQXarqj", 
pseudo_dir = "/opt/pp", 
restart_mode = 'from_scratch', 
tprnfor = .true., 
tstress = .true., 
/ 
&SYSTEM 
celldm(1) = 15.28152738, 
degauss = 0.02, 
ecutrho = 200, 
ecutwfc = 50, 
ibrav = 0, 
nat = 32, 
nspin = 1, 
ntyp = 1, 
occupations = 'smearing', 
smearing = 'mv', 
starting_magnetization(1) = 0, 
/ 
&ELECTRONS 
conv_thr = 1.0D-6, 
diagonalization = 'david', 
mixing_beta = 1.0000000E-01, 
mixing_mode = 'TF', 
mixing_ndim = 10, 
/ 
&IONS 
ion_dynamics = 'bfgs', 
/ 
&CELL 
cell_dynamics = 'bfgs', 
cell_factor = 2.0, 
press = 0.0, 
/ 
ATOMIC_SPECIES 
Al 26.982 Al.pbe-nl-kjpaw_psl.1.0.0.UPF 
ATOMIC_POSITIONS crystal
Al   -0.00575757018628   -0.00508304225162   -0.00414726265123   
Al   0.246037642159   0.241727287801   -0.00411070924262   
Al   0.243280072102   -0.00474751377798   0.249489564385   
Al   -0.00555491371527   0.248261867457   0.247701975308   
Al   -0.00114496826409   -0.00120388769481   0.492861982327   
Al   0.246674403236   0.242088039032   0.494822259098   
Al   0.245209201113   -0.00277461926928   0.742974605261   
Al   -0.00435697553725   0.246581844983   0.74812447082   
Al   -0.0014382991082   0.49648846735   -0.00548190718583   
Al   0.246997035486   0.747582390989   0.00124635717757   
Al   0.24778836369   0.49650530465   0.24877900344   
Al   -0.00462210584493   0.74549313292   0.245170017815   
Al   -0.00347383024339   0.497261867369   0.496348024522   
Al   0.244189867567   0.745776145865   0.492696584866   
Al   0.250146378111   0.491397035785   0.739904524108   
Al   -0.0104795563655   0.740056358396   0.74465535783   
Al   0.498021685777   -0.00684049829112   -0.005854315059   
Al   0.743363334527   0.246269092411   -0.00896303072594   
Al   0.738935099077   -0.00676834842984   0.245998088703   
Al   0.49436757578   0.244147190855   0.242074146027   
Al   0.49350376546   -0.00055148150077   0.494326537253   
Al   0.745857968834   0.239901544421   0.494001884445   
Al   0.745336403542   -0.00633276830147   0.745175200886   
Al   0.494947010533   0.24294852757   0.744682326216   
Al   0.492407888403   0.496613284385   -0.00874051479657   
Al   0.741124579841   0.746328957913   -0.000859919504441   
Al   0.746374987046   0.491595688157   0.243904377148   
Al   0.496168175767   0.741420042358   0.24811074144   
Al   0.489586185524   0.496406769139   0.495410981216   
Al   0.747415471758   0.744560712244   0.492440969733   
Al   0.743919905195   0.494916165485   0.746992950198   
Al   0.494991909816   0.743943679144   0.743449169839   
K_POINTS automatic
3 3 3 1 1 1 
CELL_PARAMETERS alat
1.0 0.0 0.0 
0.0 1.0 0.0 
0.0 0.0 1.0