! Edited 0:44   19/7/2021
&CONTROL 
calculation = "scf", 
disk_io = 'low', 
etot_conv_thr = 1.0E-4, 
forc_conv_thr = 1.0D-3, 
nstep = 40, 
outdir = "/scratch", 
prefix = "mchOsKZIgoSmioml", 
pseudo_dir = "/opt/pp", 
restart_mode = 'from_scratch', 
tprnfor = .true., 
tstress = .true., 
/ 
&SYSTEM 
celldm(1) = 15.27601294, 
degauss = 0.02, 
ecutrho = 200, 
ecutwfc = 50, 
ibrav = 0, 
nat = 32, 
nspin = 1, 
ntyp = 1, 
occupations = 'smearing', 
smearing = 'mv', 
starting_magnetization(1) = 0, 
/ 
&ELECTRONS 
conv_thr = 1.0D-6, 
diagonalization = 'david', 
mixing_beta = 1.0000000E-01, 
mixing_mode = 'TF', 
mixing_ndim = 10, 
/ 
&IONS 
ion_dynamics = 'bfgs', 
/ 
&CELL 
cell_dynamics = 'bfgs', 
cell_factor = 2.0, 
press = 0.0, 
/ 
ATOMIC_SPECIES 
Al 26.982 Al.pbe-nl-kjpaw_psl.1.0.0.UPF 
ATOMIC_POSITIONS crystal
Al   -0.00575964859348   -0.0050848771631   -0.00414875975856   
Al   0.2460362118   0.241724301461   -0.00411219315465   
Al   0.243277646296   -0.00474922756808   0.249489380124   
Al   -0.00555691896615   0.248261240014   0.247701145751   
Al   -0.00114538158259   -0.00120432228246   0.492859405597   
Al   0.246673202739   0.242085182918   0.494820390002   
Al   0.245207471698   -0.00277562087039   0.742972069186   
Al   -0.00435854834818   0.246580611074   0.748123793779   
Al   -0.00143881831529   0.496487199733   -0.00548388608231   
Al   0.246995951456   0.747581518263   0.00124680709614   
Al   0.247787565318   0.496504043111   0.248778562677   
Al   -0.00462377436442   0.745491506   0.245168274255   
Al   -0.00347508425047   0.49726087894   0.496346706207   
Al   0.244187770185   0.745774621109   0.492693948429   
Al   0.250146430952   0.491393930228   0.739900879774   
Al   -0.0104833393477   0.740052768872   0.744653428485   
Al   0.498020971631   -0.00684296762114   -0.00585642838983   
Al   0.743360938778   0.246267745602   -0.00896626626229   
Al   0.738931104793   -0.00677079171471   0.245996644066   
Al   0.494365542548   0.244145078068   0.242071284897   
Al   0.493501420405   -0.000551680578347   0.494324489208   
Al   0.745856473615   0.239897899011   0.493999719204   
Al   0.745334720045   -0.00633505434763   0.745173459197   
Al   0.49494518647   0.242945982081   0.744680406606   
Al   0.49240514775   0.496612061826   -0.0087436700076   
Al   0.741121375931   0.746327632715   -0.000860229924086   
Al   0.746373678464   0.491592654311   0.243902176708   
Al   0.496166792529   0.741416945106   0.248110059443   
Al   0.489582426274   0.49640547203   0.49540932464   
Al   0.747414538777   0.744558748733   0.492438241022   
Al   0.743917710361   0.494914330288   0.746991864693   
Al   0.494990101962   0.743941492892   0.743446805075   
K_POINTS automatic
3 3 3 1 1 1 
CELL_PARAMETERS alat
1.0 0.0 0.0 
0.0 1.0 0.0 
0.0 0.0 1.0