! Edited 0:44   19/7/2021
&CONTROL 
calculation = "scf", 
disk_io = 'low', 
etot_conv_thr = 1.0E-4, 
forc_conv_thr = 1.0D-3, 
nstep = 40, 
outdir = "/scratch", 
prefix = "CVgWGJoyuiacBmnv", 
pseudo_dir = "/opt/pp", 
restart_mode = 'from_scratch', 
tprnfor = .true., 
tstress = .true., 
/ 
&SYSTEM 
celldm(1) = 15.2890603, 
degauss = 0.02, 
ecutrho = 200, 
ecutwfc = 50, 
ibrav = 0, 
nat = 32, 
nspin = 1, 
ntyp = 1, 
occupations = 'smearing', 
smearing = 'mv', 
starting_magnetization(1) = 0, 
/ 
&ELECTRONS 
conv_thr = 1.0D-6, 
diagonalization = 'david', 
mixing_beta = 1.0000000E-01, 
mixing_mode = 'TF', 
mixing_ndim = 10, 
/ 
&IONS 
ion_dynamics = 'bfgs', 
/ 
&CELL 
cell_dynamics = 'bfgs', 
cell_factor = 2.0, 
press = 0.0, 
/ 
ATOMIC_SPECIES 
Al 26.982 Al.pbe-nl-kjpaw_psl.1.0.0.UPF 
ATOMIC_POSITIONS crystal
Al   -0.00575473343145   -0.00508053783671   -0.00414521929492   
Al   0.246039594413   0.241731363766   -0.00410868389617   
Al   0.24328338301   -0.00474517467794   0.249489815877   
Al   -0.00555217680928   0.248262723835   0.247703107545   
Al   -0.00114440413822   -0.00120329453935   0.492865499229   
Al   0.246676041757   0.242091937255   0.494824810171   
Al   0.24521156154   -0.00277325221437   0.742978066673   
Al   -0.00435482885541   0.246583529108   0.748125394894   
Al   -0.00143759045823   0.496490197483   -0.00547920625016   
Al   0.246998515047   0.747583582145   0.00124574309739   
Al   0.247789453363   0.496507026487   0.248779605025   
Al   -0.00461982853338   0.745495353453   0.245172397547   
Al   -0.00347211868723   0.497263216447   0.49634982385   
Al   0.244192730219   0.745778226958   0.492700183259   
Al   0.250146305991   0.491401274466   0.739909498149   
Al   -0.0104743930881   0.740061257628   0.744657991135   
Al   0.498022660492   -0.00683712797762   -0.00585143063797   
Al   0.743366604412   0.246270930629   -0.00895861464071   
Al   0.738940550754   -0.00676501366457   0.246000060445   
Al   0.494370350875   0.244150074534   0.242078051095   
Al   0.493506966155   -0.000551209785835   0.494329332568   
Al   0.745860009613   0.23990651993   0.494004839716   
Al   0.745338701296   -0.00632964814653   0.745177578065   
Al   0.494949500141   0.24295200183   0.744684946234   
Al   0.492411629036   0.49661495302   -0.00873620834494   
Al   0.74112895276   0.746330766635   -0.000859495822102   
Al   0.74637677309   0.491599828962   0.243907380461   
Al   0.496170063707   0.741424269703   0.248111672278   
Al   0.48959131641   0.496408539524   0.495413242225   
Al   0.747416745155   0.744563392181   0.492444694067   
Al   0.743922900858   0.494918670291   0.746994431772   
Al   0.494994377302   0.743946663094   0.743452397433   
K_POINTS automatic
3 3 3 1 1 1 
CELL_PARAMETERS alat
1.0 0.0 0.0 
0.0 1.0 0.0 
0.0 0.0 1.0