! Edited 0:44   19/7/2021
&CONTROL 
calculation = "scf", 
disk_io = 'low', 
etot_conv_thr = 1.0E-4, 
forc_conv_thr = 1.0D-3, 
nstep = 40, 
outdir = "/scratch", 
prefix = "ApLlHtDAZiCfvjHs", 
pseudo_dir = "/opt/pp", 
restart_mode = 'from_scratch', 
tprnfor = .true., 
tstress = .true., 
/ 
&SYSTEM 
celldm(1) = 15.26728039, 
degauss = 0.02, 
ecutrho = 200, 
ecutwfc = 50, 
ibrav = 0, 
nat = 32, 
nspin = 1, 
ntyp = 1, 
occupations = 'smearing', 
smearing = 'mv', 
starting_magnetization(1) = 0, 
/ 
&ELECTRONS 
conv_thr = 1.0D-6, 
diagonalization = 'david', 
mixing_beta = 1.0000000E-01, 
mixing_mode = 'TF', 
mixing_ndim = 10, 
/ 
&IONS 
ion_dynamics = 'bfgs', 
/ 
&CELL 
cell_dynamics = 'bfgs', 
cell_factor = 2.0, 
press = 0.0, 
/ 
ATOMIC_SPECIES 
Al 26.982 Al.pbe-nl-kjpaw_psl.1.0.0.UPF 
ATOMIC_POSITIONS crystal
Al   -0.00576294298633   -0.00508778560147   -0.00415113275828   
Al   0.2460339446   0.241719567942   -0.00411454523907   
Al   0.243273801257   -0.00475194402224   0.249489088061   
Al   -0.00556009740209   0.248260245482   0.247699830857   
Al   -0.00114603671577   -0.00120501112842   0.492855321333   
Al   0.246671299884   0.242080655816   0.494817427378   
Al   0.245204730477   -0.00277720846474   0.742968049363   
Al   -0.00436104134238   0.246578655259   0.74812272063   
Al   -0.00143964128785   0.496485190489   -0.00548702274504   
Al   0.246994233206   0.747580134945   0.00124752024249   
Al   0.247786299854   0.496502043501   0.248777864041   
Al   -0.00462641906208   0.74548892724   0.245165510613   
Al   -0.00347707192255   0.497259312222   0.496344616603   
Al   0.244184445717   0.745772204285   0.492689769528   
Al   0.250146514707   0.491389007745   0.739895103298   
Al   -0.0104893355882   0.740047079273   0.744650370363   
Al   0.49801983967   -0.00684688164875   -0.0058597781386   
Al   0.743357141381   0.246265610835   -0.00897139477022   
Al   0.738924773627   -0.00677466445927   0.245994354234   
Al   0.494362319762   0.244141729181   0.242066749846   
Al   0.49349770336   -0.000551996127555   0.49432124294   
Al   0.745854103609   0.239892120831   0.493996287174   
Al   0.745332051607   -0.00633867785997   0.745170698522   
Al   0.494942295228   0.242941947337   0.744677363915   
Al   0.492400803661   0.496610123999   -0.00874867119534   
Al   0.741116297552   0.746325532201   -0.000860721956762   
Al   0.746371604288   0.491587845494   0.243898688886   
Al   0.496164600018   0.741412035786   0.248108978438   
Al   0.48957646765   0.496403416039   0.495406698875   
Al   0.74741305995   0.744555636456   0.492433915861   
Al   0.743914231424   0.494911421396   0.746990144105   
Al   0.49498723641   0.743938027559   0.743443056791   
K_POINTS automatic
3 3 3 1 1 1 
CELL_PARAMETERS alat
1.0 0.0 0.0 
0.0 1.0 0.0 
0.0 0.0 1.0