! Edited 19:27   19/7/2021
&CONTROL 
calculation = "scf", 
disk_io = 'low', 
etot_conv_thr = 1.0E-4, 
forc_conv_thr = 1.0D-3, 
nstep = 40, 
outdir = "/scratch", 
prefix = "VjnZaKUxotwvsVHT", 
pseudo_dir = "/opt/pp", 
restart_mode = 'from_scratch', 
tprnfor = .true., 
tstress = .true., 
/ 
&SYSTEM 
celldm(1) = 15.2741088, 
degauss = 0.02, 
ecutrho = 200, 
ecutwfc = 50, 
ibrav = 0, 
nat = 32, 
nspin = 1, 
ntyp = 1, 
occupations = 'smearing', 
smearing = 'mv', 
starting_magnetization(1) = 0, 
/ 
&ELECTRONS 
conv_thr = 1.0D-6, 
diagonalization = 'david', 
mixing_beta = 1.0000000E-01, 
mixing_mode = 'TF', 
mixing_ndim = 10, 
/ 
&IONS 
ion_dynamics = 'bfgs', 
/ 
&CELL 
cell_dynamics = 'bfgs', 
cell_factor = 2.0, 
press = 0.0, 
/ 
ATOMIC_SPECIES 
Al 26.982 Al.pbe-nl-kjpaw_psl.1.0.0.UPF 
ATOMIC_POSITIONS crystal
Al   -0.0074129872067   -0.00852126771671   -0.00992463621063   
Al   0.243643491678   0.240357732043   -0.00516417441716   
Al   0.239351789379   -6.84472034406e-05   0.247349667879   
Al   -0.00637984875279   0.244991858461   0.245676762734   
Al   -0.0087289335489   -0.00714473028104   0.491323803818   
Al   0.244898811384   0.243214917966   0.489444087054   
Al   0.238500113553   -0.00746831895237   0.744769585245   
Al   -0.00592090181949   0.239325285557   0.739773686344   
Al   -0.00433376273899   0.494403748878   -0.00884462584849   
Al   0.249797779935   0.738893407713   -0.00600209335781   
Al   0.247817886783   0.494323096393   0.247445518566   
Al   -0.00562077351411   0.74503348294   0.239333885223   
Al   -0.0126569927022   0.498341842561   0.483286030604   
Al   0.24086162613   0.743785656674   0.491223247266   
Al   0.243823565125   0.49072779919   0.747094568837   
Al   -0.0107260547698   0.736196202027   0.745236390423   
Al   0.487666776659   -0.00967310654937   -0.00975675025167   
Al   0.746839876103   0.244373009887   -0.00576802978243   
Al   0.751782652635   -0.00624963963714   0.241080778859   
Al   0.494452566421   0.237421120991   0.24019522495   
Al   0.49829934209   -0.00452868680859   0.498469634463   
Al   0.744343743079   0.243820244318   0.492345430853   
Al   0.743756176899   -0.00760479962787   0.739062807737   
Al   0.489185641679   0.248747441439   0.746821729651   
Al   0.493719915897   0.493232434406   -0.00587091873456   
Al   0.741619504759   0.740098828905   -0.0132605649048   
Al   0.748095738446   0.492226151836   0.246595955632   
Al   0.491302486993   0.747036675637   0.247128694508   
Al   0.49287065056   0.492440596878   0.49272692743   
Al   0.740285800865   0.746181898879   0.494761100886   
Al   0.746966575722   0.49394358577   0.745864595683   
Al   0.491880550263   0.737924502262   0.746366412563   
K_POINTS automatic
3 3 3 1 1 1 
CELL_PARAMETERS alat
1.0 0.0 0.0 
0.0 1.0 0.0 
0.0 0.0 1.0