! Edited 0:44   19/7/2021
&CONTROL 
calculation = "scf", 
disk_io = 'low', 
etot_conv_thr = 1.0E-4, 
forc_conv_thr = 1.0D-3, 
nstep = 40, 
outdir = "/scratch", 
prefix = "ReQNDHXjztmsjmGv", 
pseudo_dir = "/opt/pp", 
restart_mode = 'from_scratch', 
tprnfor = .true., 
tstress = .true., 
/ 
&SYSTEM 
celldm(1) = 15.2741088, 
degauss = 0.02, 
ecutrho = 200, 
ecutwfc = 50, 
ibrav = 0, 
nat = 32, 
nspin = 1, 
ntyp = 1, 
occupations = 'smearing', 
smearing = 'mv', 
starting_magnetization(1) = 0, 
/ 
&ELECTRONS 
conv_thr = 1.0D-6, 
diagonalization = 'david', 
mixing_beta = 1.0000000E-01, 
mixing_mode = 'TF', 
mixing_ndim = 10, 
/ 
&IONS 
ion_dynamics = 'bfgs', 
/ 
&CELL 
cell_dynamics = 'bfgs', 
cell_factor = 2.0, 
press = 0.0, 
/ 
ATOMIC_SPECIES 
Al 26.982 Al.pbe-nl-kjpaw_psl.1.0.0.UPF 
ATOMIC_POSITIONS crystal
Al   -0.00144009165438   -0.00127137776677   -0.00103731924047   
Al   0.249008929414   0.247930817444   -0.00102817644985   
Al   0.248319202064   -0.00118745490711   0.249872329117   
Al   -0.00138940292925   0.249565255813   0.249425214791   
Al   -0.000286381092769   -0.00030111810469   0.498214628854   
Al   0.249168197001   0.248021049055   0.498704936072   
Al   0.24880171856   -0.000693991722984   0.748242798263   
Al   -0.00108977292617   0.249145046199   0.749530889971   
Al   -0.000359749421234   0.499121690453   -0.00137114243213   
Al   0.249248894239   0.749395304191   0.000311740632199   
Al   0.249446822377   0.499125901822   0.249694602602   
Al   -0.0011560876963   0.748872735988   0.248791917977   
Al   -0.000868879367577   0.499315134367   0.499086562693   
Al   0.248546761402   0.748943523588   0.498173259406   
Al   0.250036612302   0.497848214339   0.747474905193   
Al   -0.00262116156213   0.747512882201   0.748663190489   
Al   0.499505181229   -0.00171095517417   -0.00146428961972   
Al   0.748340027781   0.249066820081   -0.00224184600947   
Al   0.747232431224   -0.00169290894811   0.248999036247   
Al   0.498591210033   0.248536087042   0.248017574117   
Al   0.498375152566   -0.000137937338341   0.498580945418   
Al   0.748963989266   0.247474159909   0.498499742795   
Al   0.748833534613   -0.00158396102609   0.748793214375   
Al   0.498736139079   0.248236275674   0.74866993586   
Al   0.498101050235   0.499152909867   -0.00218619000834   
Al   0.74778006727   0.749081793725   -0.000215084291067   
Al   0.749093306598   0.497897901553   0.248475354131   
Al   0.499041578666   0.747853968776   0.249527455959   
Al   0.497395281893   0.49910125598   0.498852188086   
Al   0.749353554115   0.7486395176   0.498109324585   
Al   0.748479238029   0.498728424071   0.749247872421   
Al   0.498747369351   0.748485184403   0.748361497031   
K_POINTS automatic
3 3 3 1 1 1 
CELL_PARAMETERS alat
1.0 0.0 0.0 
0.0 1.0 0.0 
0.0 0.0 1.0