! Edited 0:44   19/7/2021
&CONTROL 
calculation = "scf", 
disk_io = 'low', 
etot_conv_thr = 1.0E-4, 
forc_conv_thr = 1.0D-3, 
nstep = 40, 
outdir = "/scratch", 
prefix = "cZhyHXFlruwdOrxO", 
pseudo_dir = "/opt/pp", 
restart_mode = 'from_scratch', 
tprnfor = .true., 
tstress = .true., 
/ 
&SYSTEM 
celldm(1) = 15.2741088, 
degauss = 0.02, 
ecutrho = 200, 
ecutwfc = 50, 
ibrav = 0, 
nat = 32, 
nspin = 1, 
ntyp = 1, 
occupations = 'smearing', 
smearing = 'mv', 
starting_magnetization(1) = 0, 
/ 
&ELECTRONS 
conv_thr = 1.0D-6, 
diagonalization = 'david', 
mixing_beta = 1.0000000E-01, 
mixing_mode = 'TF', 
mixing_ndim = 10, 
/ 
&IONS 
ion_dynamics = 'bfgs', 
/ 
&CELL 
cell_dynamics = 'bfgs', 
cell_factor = 2.0, 
press = 0.0, 
/ 
ATOMIC_SPECIES 
Al 26.982 Al.pbe-nl-kjpaw_psl.1.0.0.UPF 
ATOMIC_POSITIONS crystal
Al   -0.00108006874078   -0.000953533325074   -0.000777989430349   
Al   0.249256697061   0.248448113083   -0.000771132337385   
Al   0.248739401548   -0.000890591180331   0.249904246838   
Al   -0.00104205219693   0.24967394186   0.249568911094   
Al   -0.000214785819577   -0.000225838578517   0.498660971641   
Al   0.249376147751   0.248515786791   0.499028702054   
Al   0.24910128892   -0.000520493792238   0.748682098697   
Al   -0.000817329694628   0.24935878465   0.749648167478   
Al   -0.000269812065925   0.49934126784   -0.0010283568241   
Al   0.249436670679   0.749546478143   0.000233805474149   
Al   0.249585116782   0.499344426367   0.249770951951   
Al   -0.000867065772225   0.749154551991   0.249093938483   
Al   -0.000651659525683   0.499486350775   0.499314922019   
Al   0.248910071051   0.749207642691   0.498629944554   
Al   0.250027459226   0.498386160754   0.748106178895   
Al   -0.0019658711716   0.748134661651   0.748997392867   
Al   0.499628885922   -0.00128321638063   -0.00109821721479   
Al   0.748755020835   0.24930011506   -0.00168138450711   
Al   0.747924323418   -0.00126968171109   0.249249277185   
Al   0.498943407525   0.248902065281   0.248513180588   
Al   0.498781364424   -0.000103453003755   0.498935709064   
Al   0.74922299195   0.248105619932   0.498874807096   
Al   0.749125150959   -0.00118797076957   0.749094910781   
Al   0.499052104309   0.248677206755   0.749002451895   
Al   0.498575787676   0.499364682401   -0.00163964250625   
Al   0.748335050453   0.749311345294   -0.0001613132183   
Al   0.749319979948   0.498423426165   0.248856515598   
Al   0.499281183999   0.748390476582   0.249645591969   
Al   0.49804646142   0.499325941985   0.499139141065   
Al   0.749515165587   0.7489796382   0.498581993438   
Al   0.748859428522   0.499046318053   0.749435904316   
Al   0.499060527013   0.748863888302   0.748771122773   
K_POINTS automatic
3 3 3 1 1 1 
CELL_PARAMETERS alat
1.0 0.0 0.0 
0.0 1.0 0.0 
0.0 0.0 1.0