! Edited 0:44   19/7/2021
&CONTROL 
calculation = "scf", 
disk_io = 'low', 
etot_conv_thr = 1.0E-4, 
forc_conv_thr = 1.0D-3, 
nstep = 40, 
outdir = "/scratch", 
prefix = "sMzFFNiHoTSgGHtw", 
pseudo_dir = "/opt/pp", 
restart_mode = 'from_scratch', 
tprnfor = .true., 
tstress = .true., 
/ 
&SYSTEM 
celldm(1) = 15.2741088, 
degauss = 0.02, 
ecutrho = 200, 
ecutwfc = 50, 
ibrav = 0, 
nat = 32, 
nspin = 1, 
ntyp = 1, 
occupations = 'smearing', 
smearing = 'mv', 
starting_magnetization(1) = 0, 
/ 
&ELECTRONS 
conv_thr = 1.0D-6, 
diagonalization = 'david', 
mixing_beta = 1.0000000E-01, 
mixing_mode = 'TF', 
mixing_ndim = 10, 
/ 
&IONS 
ion_dynamics = 'bfgs', 
/ 
&CELL 
cell_dynamics = 'bfgs', 
cell_factor = 2.0, 
press = 0.0, 
/ 
ATOMIC_SPECIES 
Al 26.982 Al.pbe-nl-kjpaw_psl.1.0.0.UPF 
ATOMIC_POSITIONS crystal
Al   -0.0100806415807   -0.00889964436736   -0.00726123468326   
Al   0.243062505899   0.235515722105   -0.00719723514893   
Al   0.23823441445   -0.00831218434976   0.249106303819   
Al   -0.00972582050472   0.246956790692   0.24597650354   
Al   -0.00200466764938   -0.00210782673283   0.487502401981   
Al   0.244177379009   0.236147343386   0.490934552504   
Al   0.241612029919   -0.00485794206089   0.737699587841   
Al   -0.00762841048319   0.244015323396   0.746716229794   
Al   -0.00251824594864   0.49385183317   -0.00959799702494   
Al   0.244742259675   0.745767129338   0.00218218442539   
Al   0.246127756636   0.493881312756   0.247862218212   
Al   -0.0080926138741   0.742109151914   0.241543425842   
Al   -0.00608215557304   0.495205940569   0.493605938849   
Al   0.239827329811   0.742604665119   0.487212815842   
Al   0.250256286111   0.484937500373   0.732324336351   
Al   -0.0183481309349   0.732590175408   0.740642333424   
Al   0.496536268604   -0.0119766862192   -0.010250027338   
Al   0.738380194464   0.243467740565   -0.0156929220663   
Al   0.730627018565   -0.0118503626368   0.242993253731   
Al   0.49013847023   0.239752609292   0.236123018818   
Al   0.488626067959   -0.000965561368384   0.490066617927   
Al   0.742747924863   0.232319119365   0.489498199567   
Al   0.741834742288   -0.0110877271827   0.741552500623   
Al   0.49115297355   0.237653929716   0.740689551022   
Al   0.486707351647   0.494070369072   -0.0153033300583   
Al   0.734460470892   0.743572556076   -0.00150559003747   
Al   0.743653146183   0.485285310873   0.239327478919   
Al   0.493291050661   0.73497778143   0.24669219171   
Al   0.48176697325   0.49370879186   0.491965316605   
Al   0.745474878808   0.740476623203   0.486765272093   
Al   0.739354666201   0.491098968499   0.744735106949   
Al   0.491231585458   0.739396290819   0.738530479217   
K_POINTS automatic
3 3 3 1 1 1 
CELL_PARAMETERS alat
1.0 0.0 0.0 
0.0 1.0 0.0 
0.0 0.0 1.0