! Edited 0:44   19/7/2021
&CONTROL 
calculation = "scf", 
disk_io = 'low', 
etot_conv_thr = 1.0E-4, 
forc_conv_thr = 1.0D-3, 
nstep = 40, 
outdir = "/scratch", 
prefix = "CVgWGJoyuiacBmnv", 
pseudo_dir = "/opt/pp", 
restart_mode = 'from_scratch', 
tprnfor = .true., 
tstress = .true., 
/ 
&SYSTEM 
celldm(1) = 15.2890603, 
degauss = 0.02, 
ecutrho = 200, 
ecutwfc = 50, 
ibrav = 0, 
nat = 32, 
nspin = 1, 
ntyp = 1, 
occupations = 'smearing', 
smearing = 'mv', 
starting_magnetization(1) = 0, 
/ 
&ELECTRONS 
conv_thr = 1.0D-6, 
diagonalization = 'david', 
mixing_beta = 1.0000000E-01, 
mixing_mode = 'TF', 
mixing_ndim = 10, 
/ 
&IONS 
ion_dynamics = 'bfgs', 
/ 
&CELL 
cell_dynamics = 'bfgs', 
cell_factor = 2.0, 
press = 0.0, 
/ 
ATOMIC_SPECIES 
Al 26.982 Al.pbe-nl-kjpaw_psl.1.0.0.UPF 
ATOMIC_POSITIONS crystal
Al   -0.00719341678931   -0.00635067229589   -0.00518152411865   
Al   0.245049493016   0.239664204708   -0.00513585487022   
Al   0.241604228763   -0.00593146834743   0.249362269846   
Al   -0.0069402210116   0.247828404794   0.247128884431   
Al   -0.00143050517278   -0.00150411817418   0.491081874036   
Al   0.245845052197   0.240114921569   0.493531012714   
Al   0.244014451925   -0.00346656526796   0.741222583341   
Al   -0.00544353606926   0.245729411385   0.747656743617   
Al   -0.00179698807279   0.495612746853   -0.0068490078127   
Al   0.246248143809   0.746979477681   0.00155717887174   
Al   0.247236816704   0.495633783109   0.248474506282   
Al   -0.00577478566672   0.744369191817   0.243965496934   
Al   -0.00434014835903   0.496579020559   0.495437279813   
Al   0.242740912774   0.744722783697   0.490875229074   
Al   0.250182882488   0.489251593082   0.737386872687   
Al   -0.0130929913601   0.737576572035   0.743322488919   
Al   0.497528325615   -0.00854640997202   -0.00731428829746   
Al   0.741708255515   0.245338663287   -0.0111982683009   
Al   0.736175688442   -0.00845626708071   0.245000075556   
Al   0.492962938594   0.242687593168   0.240097563869   
Al   0.491883707694   -0.000689012232294   0.49291166571   
Al   0.744825012016   0.237383149913   0.492506049645   
Al   0.744173376621   -0.00791206018316   0.743971972581   
Al   0.493686875176   0.241190002288   0.743356182793   
Al   0.490514536295   0.495768691275   -0.0109202604312   
Al   0.73891119095   0.745413458294   -0.00107436977763   
Al   0.745470966363   0.489499786202   0.242384225576   
Al   0.495212579633   0.739280337128   0.247639590348   
Al   0.486989145513   0.495510674405   0.494266552782   
Al   0.746770931443   0.743204240227   0.490555867584   
Al   0.742403626072   0.493648337863   0.746243039715   
Al   0.493742971628   0.742433328867   0.741815496791   
K_POINTS automatic
3 3 3 1 1 1 
CELL_PARAMETERS alat
1.0 0.0 0.0 
0.0 1.0 0.0 
0.0 0.0 1.0