! Edited 0:44   19/7/2021
&CONTROL 
calculation = "scf", 
disk_io = 'low', 
etot_conv_thr = 1.0E-4, 
forc_conv_thr = 1.0D-3, 
nstep = 40, 
outdir = "/scratch", 
prefix = "RlLckEmHImHvsLsA", 
pseudo_dir = "/opt/pp", 
restart_mode = 'from_scratch', 
tprnfor = .true., 
tstress = .true., 
/ 
&SYSTEM 
celldm(1) = 15.27580845, 
degauss = 0.02, 
ecutrho = 200, 
ecutwfc = 50, 
ibrav = 0, 
nat = 32, 
nspin = 1, 
ntyp = 1, 
occupations = 'smearing', 
smearing = 'mv', 
starting_magnetization(1) = 0, 
/ 
&ELECTRONS 
conv_thr = 1.0D-6, 
diagonalization = 'david', 
mixing_beta = 1.0000000E-01, 
mixing_mode = 'TF', 
mixing_ndim = 10, 
/ 
&IONS 
ion_dynamics = 'bfgs', 
/ 
&CELL 
cell_dynamics = 'bfgs', 
cell_factor = 2.0, 
press = 0.0, 
/ 
ATOMIC_SPECIES 
Al 26.982 Al.pbe-nl-kjpaw_psl.1.0.0.UPF 
ATOMIC_POSITIONS crystal
Al   -0.00719965711895   -0.00635618153993   -0.00518601912005   
Al   0.245045198424   0.239655238347   -0.00514031025329   
Al   0.241596945384   -0.00593661392968   0.249361716611   
Al   -0.00694624169248   0.247826520923   0.247126393722   
Al   -0.00143174614409   -0.00150542300518   0.491074137511   
Al   0.245841447756   0.240106346208   0.493525400831   
Al   0.244009259428   -0.00346957253289   0.741214968883   
Al   -0.0054482583675   0.245725706625   0.747654710829   
Al   -0.00179854697008   0.495608940886   -0.00685494936561   
Al   0.246244889052   0.746976857361   0.0015585297332   
Al   0.247234419627   0.495629995391   0.248473182907   
Al   -0.00577979532586   0.744364307059   0.243960261968   
Al   -0.00434391346222   0.49657605284   0.495433321627   
Al   0.242734615475   0.744718205682   0.490867313284   
Al   0.25018304114   0.489242268778   0.737375930727   
Al   -0.0131043496039   0.737565794641   0.743316696141   
Al   0.497526181424   -0.00855382403088   -0.00732063348382   
Al   0.74170106238   0.245334619551   -0.0112079828618   
Al   0.736163695774   -0.0084636029401   0.244995738093   
Al   0.492956833903   0.242681249614   0.240088973449   
Al   0.491876666764   -0.000689609954292   0.49290551654   
Al   0.744820522685   0.237372204724   0.492499548601   
Al   0.744168321992   -0.00791892394   0.743966743233   
Al   0.493681398505   0.241182359565   0.743350419244   
Al   0.490506307602   0.495765020591   -0.0109297338187   
Al   0.738901571346   0.745409479443   -0.00107530179947   
Al   0.7454670374   0.489490677208   0.242377618849   
Al   0.495208426519   0.73927103776   0.247637542679   
Al   0.486977858523   0.49550677989   0.494261578984   
Al   0.746768130208   0.743198344867   0.490547674745   
Al   0.742397036175   0.493642827761   0.74623978053   
Al   0.493737543621   0.742426764737   0.741808396688   
K_POINTS automatic
3 3 3 1 1 1 
CELL_PARAMETERS alat
1.0 0.0 0.0 
0.0 1.0 0.0 
0.0 0.0 1.0