! Edited 0:44   19/7/2021
&CONTROL 
calculation = "scf", 
disk_io = 'low', 
etot_conv_thr = 1.0E-4, 
forc_conv_thr = 1.0D-3, 
nstep = 40, 
outdir = "/scratch", 
prefix = "ReQNDHXjztmsjmGv", 
pseudo_dir = "/opt/pp", 
restart_mode = 'from_scratch', 
tprnfor = .true., 
tstress = .true., 
/ 
&SYSTEM 
celldm(1) = 15.2741088, 
degauss = 0.02, 
ecutrho = 200, 
ecutwfc = 50, 
ibrav = 0, 
nat = 32, 
nspin = 1, 
ntyp = 1, 
occupations = 'smearing', 
smearing = 'mv', 
starting_magnetization(1) = 0, 
/ 
&ELECTRONS 
conv_thr = 1.0D-6, 
diagonalization = 'david', 
mixing_beta = 1.0000000E-01, 
mixing_mode = 'TF', 
mixing_ndim = 10, 
/ 
&IONS 
ion_dynamics = 'bfgs', 
/ 
&CELL 
cell_dynamics = 'bfgs', 
cell_factor = 2.0, 
press = 0.0, 
/ 
ATOMIC_SPECIES 
Al 26.982 Al.pbe-nl-kjpaw_psl.1.0.0.UPF 
ATOMIC_POSITIONS crystal
Al   -0.00072004582719   -0.000635688883383   -0.000518659620233   
Al   0.249504464707   0.248965408722   -0.000514088224923   
Al   0.249159601032   -0.000593727453554   0.249936164559   
Al   -0.000694701464623   0.249782627907   0.249712607396   
Al   -0.000143190546385   -0.000150559052345   0.499107314427   
Al   0.249584098501   0.249010524528   0.499352468036   
Al   0.24940085928   -0.000346995861492   0.749121399132   
Al   -0.000544886463085   0.2495725231   0.749765444985   
Al   -0.000179874710617   0.499560845226   -0.000685571216067   
Al   0.24962444712   0.749697652096   0.000155870316099   
Al   0.249723411188   0.499562950911   0.249847301301   
Al   -0.00057804384815   0.749436367994   0.249395958989   
Al   -0.000434439683788   0.499657567184   0.499543281346   
Al   0.249273380701   0.749471761794   0.499086629703   
Al   0.250018306151   0.49892410717   0.748737452596   
Al   -0.00131058078106   0.748756441101   0.749331595245   
Al   0.499752590615   -0.000855477587084   -0.000732144809859   
Al   0.74917001389   0.24953341004   -0.00112092300474   
Al   0.748616215612   -0.000846454474057   0.249499518124   
Al   0.499295605016   0.249268043521   0.249008787058   
Al   0.499187576283   -6.89686691703e-05   0.499290472709   
Al   0.749481994633   0.248737079955   0.499249871398   
Al   0.749416767306   -0.000791980513047   0.749396607187   
Al   0.499368069539   0.249118137837   0.74933496793   
Al   0.499050525118   0.499576454934   -0.00109309500417   
Al   0.748890033635   0.749540896863   -0.000107542145533   
Al   0.749546653299   0.498948950777   0.249237677066   
Al   0.499520789333   0.748926984388   0.249763727979   
Al   0.498697640946   0.49955062799   0.499426094043   
Al   0.749676777058   0.7493197588   0.499054662292   
Al   0.749239619014   0.499364212036   0.749623936211   
Al   0.499373684676   0.749242592201   0.749180748516   
K_POINTS automatic
3 3 3 1 1 1 
CELL_PARAMETERS alat
1.0 0.0 0.0 
0.0 1.0 0.0 
0.0 0.0 1.0