! Edited 0:44   19/7/2021
&CONTROL 
calculation = "scf", 
disk_io = 'low', 
etot_conv_thr = 1.0E-4, 
forc_conv_thr = 1.0D-3, 
nstep = 40, 
outdir = "/scratch", 
prefix = "mchOsKZIgoSmioml", 
pseudo_dir = "/opt/pp", 
restart_mode = 'from_scratch', 
tprnfor = .true., 
tstress = .true., 
/ 
&SYSTEM 
celldm(1) = 15.27601294, 
degauss = 0.02, 
ecutrho = 200, 
ecutwfc = 50, 
ibrav = 0, 
nat = 32, 
nspin = 1, 
ntyp = 1, 
occupations = 'smearing', 
smearing = 'mv', 
starting_magnetization(1) = 0, 
/ 
&ELECTRONS 
conv_thr = 1.0D-6, 
diagonalization = 'david', 
mixing_beta = 1.0000000E-01, 
mixing_mode = 'TF', 
mixing_ndim = 10, 
/ 
&IONS 
ion_dynamics = 'bfgs', 
/ 
&CELL 
cell_dynamics = 'bfgs', 
cell_factor = 2.0, 
press = 0.0, 
/ 
ATOMIC_SPECIES 
Al 26.982 Al.pbe-nl-kjpaw_psl.1.0.0.UPF 
ATOMIC_POSITIONS crystal
Al   -0.00863947289022   -0.00762731574466   -0.00622313963785   
Al   0.2440543177   0.237586452191   -0.00616828973198   
Al   0.239916469444   -0.00712384135213   0.249234070187   
Al   -0.00833537844922   0.247391860021   0.246551718627   
Al   -0.00171807237388   -0.00180648342368   0.489289108395   
Al   0.245009804109   0.238127774377   0.492230585003   
Al   0.242811207547   -0.00416343130558   0.739458103779   
Al   -0.00653782252228   0.244870916611   0.747185690668   
Al   -0.00215822747293   0.4947307996   -0.00822582912347   
Al   0.245493927184   0.746372277395   0.00187021064421   
Al   0.246681347978   0.494756064667   0.248167844015   
Al   -0.00693566154663   0.743237259   0.242752411382   
Al   -0.0052126263757   0.495891318409   0.49452005931   
Al   0.241281655278   0.743661931663   0.489040922644   
Al   0.250219646428   0.487090895342   0.734851319661   
Al   -0.0157250090215   0.735079153308   0.741980142727   
Al   0.497031457447   -0.0102644514317   -0.00878464258474   
Al   0.740041408167   0.244401618404   -0.0134493993934   
Al   0.733396657189   -0.0101561875721   0.243994966098   
Al   0.491548313823   0.241217617102   0.238106927346   
Al   0.490252130607   -0.000827520867521   0.491486733811   
Al   0.743784710423   0.234846848517   0.490999578805   
Al   0.743002080068   -0.00950258152145   0.742760188796   
Al   0.492417779705   0.239418973121   0.742020609909   
Al   0.488607721625   0.494918092738   -0.0131155050114   
Al   0.736682063896   0.744491449072   -0.00129034488613   
Al   0.744560517696   0.487388981467   0.240853265062   
Al   0.494250188793   0.737125417658   0.247165089164   
Al   0.48437363941   0.494608208045   0.49311398696   
Al   0.746121808165   0.741838123099   0.488657361533   
Al   0.740876565541   0.492371495432   0.745487797039   
Al   0.492485152942   0.740912239338   0.740170207613   
K_POINTS automatic
3 3 3 1 1 1 
CELL_PARAMETERS alat
1.0 0.0 0.0 
0.0 1.0 0.0 
0.0 0.0 1.0