! Edited 0:44   19/7/2021
&CONTROL 
calculation = "scf", 
disk_io = 'low', 
etot_conv_thr = 1.0E-4, 
forc_conv_thr = 1.0D-3, 
nstep = 40, 
outdir = "/scratch", 
prefix = "RlLckEmHImHvsLsA", 
pseudo_dir = "/opt/pp", 
restart_mode = 'from_scratch', 
tprnfor = .true., 
tstress = .true., 
/ 
&SYSTEM 
celldm(1) = 15.27580845, 
degauss = 0.02, 
ecutrho = 200, 
ecutwfc = 50, 
ibrav = 0, 
nat = 32, 
nspin = 1, 
ntyp = 1, 
occupations = 'smearing', 
smearing = 'mv', 
starting_magnetization(1) = 0, 
/ 
&ELECTRONS 
conv_thr = 1.0D-6, 
diagonalization = 'david', 
mixing_beta = 1.0000000E-01, 
mixing_mode = 'TF', 
mixing_ndim = 10, 
/ 
&IONS 
ion_dynamics = 'bfgs', 
/ 
&CELL 
cell_dynamics = 'bfgs', 
cell_factor = 2.0, 
press = 0.0, 
/ 
ATOMIC_SPECIES 
Al 26.982 Al.pbe-nl-kjpaw_psl.1.0.0.UPF 
ATOMIC_POSITIONS crystal
Al   -0.00863958854274   -0.00762741784791   -0.00622322294406   
Al   0.244054238108   0.237586286017   -0.00616837230395   
Al   0.239916334461   -0.00712393671561   0.249234059933   
Al   -0.00833549003098   0.247391825107   0.246551672467   
Al   -0.0017180953729   -0.00180650760622   0.489288965013   
Al   0.245009737307   0.238127615449   0.492230480997   
Al   0.242811111314   -0.00416348703946   0.73945796266   
Al   -0.006537910041   0.244870847951   0.747185652995   
Al   -0.0021582563641   0.494730729064   -0.00822593923874   
Al   0.245493866863   0.746372228833   0.00187023567984   
Al   0.246681303552   0.494755994469   0.248167819489   
Al   -0.00693575439104   0.74323716847   0.242752314362   
Al   -0.00521269615466   0.495891263408   0.494519985953   
Al   0.24128153857   0.743661846818   0.48904077594   
Al   0.250219649368   0.487090722534   0.734851116873   
Al   -0.0157252195247   0.735078953569   0.741980035369   
Al   0.497031417709   -0.0102645888371   -0.00878476018058   
Al   0.740041274856   0.244401543461   -0.0134495794342   
Al   0.733396434928   -0.0101563235281   0.243994885712   
Al   0.491548200684   0.241217499536   0.238106768139   
Al   0.490252000117   -0.00082753194515   0.491486619848   
Al   0.743784627222   0.234846645669   0.490999458321   
Al   0.74300198639   -0.009502708728   0.74276009188   
Al   0.492417678206   0.239418831478   0.742020503093   
Al   0.488607569122   0.494918024709   -0.0131156805824   
Al   0.736681885615   0.744491375332   -0.00129036215936   
Al   0.74456044488   0.487388812649   0.240853142619   
Al   0.494250111823   0.737125245312   0.247165051215   
Al   0.484373430228   0.494608135868   0.493113894781   
Al   0.74612175625   0.74183801384   0.488657209694   
Al   0.74087644341   0.492371393313   0.745487736636   
Al   0.492485052345   0.740912117685   0.740170076026   
K_POINTS automatic
3 3 3 1 1 1 
CELL_PARAMETERS alat
1.0 0.0 0.0 
0.0 1.0 0.0 
0.0 0.0 1.0