! Edited 2:36   21/4/2020
&CONTROL 
calculation = "scf", 
disk_io = 'low', 
etot_conv_thr = 1.0E-4, 
forc_conv_thr = 1.0D-3, 
nstep = 40, 
outdir = "/opt/scratch", 
prefix = "kAtvIjGpvedDEGuT", 
pseudo_dir = "/opt/pp", 
restart_mode = 'from_scratch', 
tprnfor = .true., 
tstress = .true., 
/ 
&SYSTEM 
celldm(1) = 15.42892963, 
degauss = 0.02, 
ecutrho = 200, 
ecutwfc = 50, 
ibrav = 0, 
nat = 33, 
nspin = 1, 
ntyp = 1, 
occupations = 'smearing', 
smearing = 'mv', 
starting_magnetization(1) = 0, 
/ 
&ELECTRONS 
conv_thr = 1.0D-6, 
diagonalization = 'david', 
mixing_beta = 1.0000000E-01, 
mixing_mode = 'TF', 
mixing_ndim = 10, 
/ 
&IONS 
ion_dynamics = 'bfgs', 
/ 
&CELL 
cell_dynamics = 'bfgs', 
cell_factor = 2.0, 
press = 0.0, 
/ 
ATOMIC_SPECIES 
Al 26.982 Al.pbe-nl-kjpaw_psl.1.0.0.UPF 
ATOMIC_POSITIONS crystal
Al   -0.000712820563009   -0.000629310094775   -0.000513455155968   
Al   0.249509437131   0.248975790277   -0.000508929632099   
Al   0.249168033974   -0.000587769724836   0.249936805112   
Al   -0.000687730517193   0.249784809116   0.249715491223   
Al   -0.000141753707941   -0.000149048274993   0.499116272036   
Al   0.249588271844   0.24902045337   0.499358965663   
Al   0.249406871328   -0.00034351394871   0.749130215408   
Al   -0.000539418826866   0.249576812595   0.749767798616   
Al   -0.000178069766744   0.499565251903   -0.000678691885664   
Al   0.249628215586   0.749700685991   0.000154306243135   
Al   0.249726186605   0.499567336459   0.249848833548   
Al   -0.000572243495793   0.749442023731   0.249402020208   
Al   -0.000430080320304   0.499661003309   0.499547864267   
Al   0.249280671926   0.749477062374   0.499095794872   
Al   0.250018122459   0.498934903163   0.748750121566   
Al   -0.00129742982314   0.748768919531   0.749338302319   
Al   0.499755073232   -0.000846893339618   -0.000724798139037   
Al   0.749178342345   0.249538092014   -0.00110967515838   
Al   0.748630101128   -0.000837960768571   0.249504540184   
Al   0.499302673233   0.249275388302   0.249018733336   
Al   0.499195728508   -6.82766064763e-05   0.499297592426   
Al   0.749487192532   0.248749752663   0.499257398526   
Al   0.749422619726   -0.000784033423824   0.749402661903   
Al   0.499374410614   0.249126986839   0.749341641162   
Al   0.499060052576   0.499580704976   -0.0010821263965   
Al   0.748901171538   0.74954550371   -0.000106463019202   
Al   0.749551202384   0.498959497478   0.249245326557   
Al   0.499525597949   0.74893775151   0.249766098839   
Al   0.998710709404   0.499555137191   -0.00056814712589   
Al   0.499680020422   0.499326584647   0.499064148237   
Al   0.74924724902   0.749370591818   0.499627709804   
Al   0.749379969406   0.499250192372   0.749188969254   
Al   0.49906421769   0.748888270856   0.749329725171   
K_POINTS automatic
3 3 3 1 1 1 
CELL_PARAMETERS alat
1.0 0.0 0.0 
0.0 1.0 0.0 
0.0 0.0 1.0