! Edited 23:41   20/7/2020
&CONTROL 
calculation = "scf", 
disk_io = 'low', 
etot_conv_thr = 1.0E-4, 
forc_conv_thr = 1.0D-3, 
nstep = 40, 
outdir = "/scratch", 
prefix = "zYHUjNcaFqanrkOQ", 
pseudo_dir = "/opt/pp", 
restart_mode = 'from_scratch', 
tprnfor = .true., 
tstress = .true., 
/ 
&SYSTEM 
celldm(1) = 15.28713085, 
degauss = 0.021, 
ecutrho = 200, 
ecutwfc = 50, 
ibrav = 0, 
nat = 32, 
nspin = 1, 
ntyp = 1, 
occupations = 'smearing', 
smearing = 'mv', 
starting_magnetization(1) = 0, 
/ 
&ELECTRONS 
conv_thr = 1.0D-6, 
diagonalization = 'david', 
mixing_beta = 1.0000000E-01, 
mixing_mode = 'TF', 
mixing_ndim = 10, 
/ 
&IONS 
ion_dynamics = 'bfgs', 
/ 
&CELL 
cell_dynamics = 'bfgs', 
cell_factor = 2.0, 
press = 0.0, 
/ 
ATOMIC_SPECIES 
Al 26.982 Al.pbe-nl-kjpaw_psl.1.0.0.UPF 
ATOMIC_POSITIONS crystal
Al   -0.000719432469925   -0.000635147383967   -0.000518217809956   
Al   0.249504886819   0.248966290019   -0.000513650308703   
Al   0.24916031691   -0.00059322169818   0.249936218936   
Al   -0.000694109696469   0.249782813071   0.249712852206   
Al   -0.000143068572257   -0.000150430801496   0.499108074844   
Al   0.249584452778   0.249011367393   0.499353019624   
Al   0.249401369647   -0.000346700279705   0.749122147551   
Al   -0.000544422311974   0.249572887238   0.749765644787   
Al   -0.000179721487785   0.499561219312   -0.00068498722534   
Al   0.249624767027   0.749697909645   0.000155737540952   
Al   0.249723646795   0.499563323203   0.249847431374   
Al   -0.000577551452555   0.749436848113   0.249396473529   
Al   -0.000434069614654   0.499657858878   0.499543670393   
Al   0.249273999658   0.749472211764   0.49908740774   
Al   0.250018290557   0.498925023648   0.748738528073   
Al   -0.00130946438789   0.748757500402   0.749332164612   
Al   0.499752801366   -0.000854748864865   -0.000731521146308   
Al   0.749170720898   0.249533807496   -0.00111996816792   
Al   0.748617394362   -0.000845733438004   0.24949994445   
Al   0.499296205042   0.249268667024   0.249009631404   
Al   0.49918826833   -6.89099195287e-05   0.499291077106   
Al   0.749482435886   0.248738155749   0.49925051038   
Al   0.749417264122   -0.000791305879596   0.749397121176   
Al   0.499368607837   0.249118889034   0.749335534425   
Al   0.49905133391   0.499576815722   -0.0010921638721   
Al   0.748890979139   0.749541287941   -0.000107450537814   
Al   0.749547039474   0.498949846093   0.249238326436   
Al   0.499521197539   0.748927898416   0.249763929243   
Al   0.498698750336   0.499551010779   0.499426582914   
Al   0.749677052389   0.749320338251   0.49905546756   
Al   0.74924026673   0.499364753619   0.749624256553   
Al   0.49937421819   0.749243237385   0.749181446379   
K_POINTS automatic
3 3 3 1 1 1 
CELL_PARAMETERS alat
1.0 0.0 0.0 
0.0 1.0 0.0 
0.0 0.0 1.0