! Edited 2:36   21/4/2020
&CONTROL 
calculation = "scf", 
disk_io = 'low', 
etot_conv_thr = 1.0E-4, 
forc_conv_thr = 1.0D-3, 
nstep = 40, 
outdir = "/opt/scratch", 
prefix = "eBFyHDjGQNwkdZJW", 
pseudo_dir = "/opt/pp", 
restart_mode = 'from_scratch', 
tprnfor = .true., 
tstress = .true., 
/ 
&SYSTEM 
celldm(1) = 15.44104466, 
degauss = 0.02, 
ecutrho = 200, 
ecutwfc = 50, 
ibrav = 0, 
nat = 33, 
nspin = 1, 
ntyp = 1, 
occupations = 'smearing', 
smearing = 'mv', 
starting_magnetization(1) = 0, 
/ 
&ELECTRONS 
conv_thr = 1.0D-6, 
diagonalization = 'david', 
mixing_beta = 1.0000000E-01, 
mixing_mode = 'TF', 
mixing_ndim = 10, 
/ 
&IONS 
ion_dynamics = 'bfgs', 
/ 
&CELL 
cell_dynamics = 'bfgs', 
cell_factor = 2.0, 
press = 0.0, 
/ 
ATOMIC_SPECIES 
Al 26.982 Al.pbe-nl-kjpaw_psl.1.0.0.UPF 
ATOMIC_POSITIONS crystal
Al   -0.000712261284625   -0.000628816338631   -0.000513052299507   
Al   0.249509822027   0.248976593871   -0.000508530326359   
Al   0.249168686734   -0.000587308561229   0.249936854695   
Al   -0.000687190924437   0.249784977955   0.249715714448   
Al   -0.000141642488107   -0.000148931331848   0.499116965409   
Al   0.249588594885   0.249021221922   0.499359468618   
Al   0.249407336696   -0.00034324442797   0.749130897841   
Al   -0.000538995599331   0.249577144628   0.749767980801   
Al   -0.000177930053363   0.499565593006   -0.00067815938461   
Al   0.249628507288   0.749700920832   0.000154185174593   
Al   0.249726401439   0.499567675926   0.249848952153   
Al   -0.000571794514051   0.749442461519   0.249402489383   
Al   -0.000429742879665   0.499661269285   0.499548219012   
Al   0.24928123631   0.749477472671   0.499096504311   
Al   0.25001810824   0.498935738837   0.748751102219   
Al   -0.00129641186085   0.748769885435   0.749338821486   
Al   0.249755265401   0.249153771132   0.249275770537   
Al   0.499178987017   -0.000461545573242   -0.00110880450823   
Al   0.748631175949   0.249162696695   -0.00049507107844   
Al   0.749303220355   -0.000724043168431   0.249019503237   
Al   0.499196359539   0.249931776963   0.249298143534   
Al   0.499487594881   -0.00124926639374   0.49925798117   
Al   0.749423072738   0.249216581728   0.499403130574   
Al   0.749374901451   -0.000872328195628   0.749342157709   
Al   0.499060790058   0.249581033954   0.748918722639   
Al   0.498902033677   0.499545860308   -0.000106379488411   
Al   0.74955155451   0.748960313855   -0.000754081326499   
Al   0.749525970164   0.498938584949   0.249766282358   
Al   0.49871172098   0.74955548623   0.249432298642   
Al   0.499680271478   0.499327113008   0.499064882505   
Al   0.749247839627   0.749371085652   0.499628001903   
Al   0.749380455881   0.499250780671   0.749189605588   
Al   0.499064951904   0.748889143117   0.749330251068   
K_POINTS automatic
3 3 3 1 1 1 
CELL_PARAMETERS alat
1.0 0.0 0.0 
0.0 1.0 0.0 
0.0 0.0 1.0