! Edited 23:41   20/7/2020
&CONTROL 
calculation = "scf", 
disk_io = 'low', 
etot_conv_thr = 1.0E-4, 
forc_conv_thr = 1.0D-3, 
nstep = 40, 
outdir = "/scratch", 
prefix = "AGGhgkmhxvlvNYHg", 
pseudo_dir = "/opt/pp", 
restart_mode = 'from_scratch', 
tprnfor = .true., 
tstress = .true., 
/ 
&SYSTEM 
celldm(1) = 15.26960452, 
degauss = 0.021, 
ecutrho = 200, 
ecutwfc = 50, 
ibrav = 0, 
nat = 32, 
nspin = 1, 
ntyp = 1, 
occupations = 'smearing', 
smearing = 'mv', 
starting_magnetization(1) = 0, 
/ 
&ELECTRONS 
conv_thr = 1.0D-6, 
diagonalization = 'david', 
mixing_beta = 1.0000000E-01, 
mixing_mode = 'TF', 
mixing_ndim = 10, 
/ 
&IONS 
ion_dynamics = 'bfgs', 
/ 
&CELL 
cell_dynamics = 'bfgs', 
cell_factor = 2.0, 
press = 0.0, 
/ 
ATOMIC_SPECIES 
Al 26.982 Al.pbe-nl-kjpaw_psl.1.0.0.UPF 
ATOMIC_POSITIONS crystal
Al   -0.000720258228763   -0.000635876401057   -0.000518812616216   
Al   0.249504318532   0.248965103535   -0.000514239872421   
Al   0.249159353128   -0.000593902593303   0.249936145728   
Al   -0.00069490639003   0.249782563785   0.24971252262   
Al   -0.00014323278522   -0.000150603464767   0.4991070511   
Al   0.249583975817   0.249010232649   0.499352277025   
Al   0.249400682543   -0.000347098219514   0.749121139959   
Al   -0.000545047195552   0.249572397001   0.749765375795   
Al   -0.000179927770672   0.499560715683   -0.000685773448202   
Al   0.249624336338   0.749697562908   0.000155916295257   
Al   0.249723329599   0.499562821989   0.249847256257   
Al   -0.000578214361495   0.749436201732   0.249395780807   
Al   -0.000434567836287   0.499657466172   0.499543146622   
Al   0.24927316636   0.749471605973   0.499086360274   
Al   0.250018311551   0.498923789799   0.748737080166   
Al   -0.00131096738065   0.748756074271   0.749331398076   
Al   0.499752517633   -0.000855729938779   -0.000732360780432   
Al   0.749169769058   0.249533272404   -0.00112125365843   
Al   0.748615807418   -0.000846704164083   0.24949937049   
Al   0.499295397232   0.249267827606   0.249008494667   
Al   0.499187336631   -6.89890137834e-05   0.49929026341   
Al   0.74948184183   0.248736707414   0.499249650122   
Al   0.749416595262   -0.000792214134159   0.749396429196   
Al   0.49936788313   0.249117877702   0.749334771757   
Al   0.499050245038   0.499576329995   -0.00109341744906   
Al   0.748889706213   0.749540761435   -0.000107573868682   
Al   0.749546519569   0.498948640735   0.249237452193   
Al   0.499520647974   0.748926667866   0.249763658283   
Al   0.498697256772   0.499550495433   0.49942592475   
Al   0.749676681712   0.74931955814   0.499054383433   
Al   0.749239394715   0.499364024489   0.749623825278   
Al   0.499373499923   0.749242368779   0.74918050685   
K_POINTS automatic
3 3 3 1 1 1 
CELL_PARAMETERS alat
1.0 0.0 0.0 
0.0 1.0 0.0 
0.0 0.0 1.0