! Edited 23:41   20/7/2020
&CONTROL 
calculation = "scf", 
disk_io = 'low', 
etot_conv_thr = 1.0E-4, 
forc_conv_thr = 1.0D-3, 
nstep = 40, 
outdir = "/scratch", 
prefix = "nDUAcjiIaiiAlHLV", 
pseudo_dir = "/opt/pp", 
restart_mode = 'from_scratch', 
tprnfor = .true., 
tstress = .true., 
/ 
&SYSTEM 
celldm(1) = 15.27296386, 
degauss = 0.021, 
ecutrho = 200, 
ecutwfc = 50, 
ibrav = 0, 
nat = 32, 
nspin = 1, 
ntyp = 1, 
occupations = 'smearing', 
smearing = 'mv', 
starting_magnetization(1) = 0, 
/ 
&ELECTRONS 
conv_thr = 1.0D-6, 
diagonalization = 'david', 
mixing_beta = 1.0000000E-01, 
mixing_mode = 'TF', 
mixing_ndim = 10, 
/ 
&IONS 
ion_dynamics = 'bfgs', 
/ 
&CELL 
cell_dynamics = 'bfgs', 
cell_factor = 2.0, 
press = 0.0, 
/ 
ATOMIC_SPECIES 
Al 26.982 Al.pbe-nl-kjpaw_psl.1.0.0.UPF 
ATOMIC_POSITIONS crystal
Al   -0.000720099805532   -0.000635736537894   -0.000518698501628   
Al   0.249504427559   0.248965331164   -0.000514126763623   
Al   0.249159538031   -0.000593771962421   0.249936159773   
Al   -0.000694753543021   0.249782611611   0.249712585851   
Al   -0.000143201280685   -0.000150570339026   0.499107247507   
Al   0.249584067323   0.249010450351   0.499352419494   
Al   0.249400814365   -0.000347021874088   0.749121333267   
Al   -0.00054492731058   0.249572491054   0.749765427402   
Al   -0.000179888194951   0.499560812305   -0.000685622610015   
Al   0.249624418966   0.74969762943   0.000155882000941   
Al   0.249723390454   0.499562918148   0.249847289854   
Al   -0.000578087181293   0.749436325741   0.249395913707   
Al   -0.000434472251624   0.499657541513   0.499543247108   
Al   0.24927332623   0.749471722195   0.499086561232   
Al   0.250018307523   0.498924026515   0.748737357949   
Al   -0.00131067902895   0.748756347877   0.749331545138   
Al   0.499752572068   -0.000855541718088   -0.000732199695204   
Al   0.74916995167   0.249533375062   -0.0011210070349   
Al   0.748616111876   -0.000846517928642   0.249499480605   
Al   0.499295552211   0.24926798865   0.249008712752   
Al   0.499187515379   -6.89738394168e-05   0.499290419519   
Al   0.749481955801   0.24873698528   0.499249815164   
Al   0.749416723584   -0.000792039883983   0.749396561954   
Al   0.499368022166   0.249118071728   0.749334918076   
Al   0.49905045394   0.499576423183   -0.0010931769482   
Al   0.748889950426   0.749540862446   -0.000107550207446   
Al   0.749546619314   0.498948871985   0.249237619918   
Al   0.499520753409   0.748926903949   0.249763710267   
Al   0.498697543315   0.499550594303   0.49942605102   
Al   0.749676752827   0.749319707806   0.499054591425   
Al   0.749239562012   0.499364164374   0.749623908019   
Al   0.499373637724   0.749242535422   0.7491806871   
K_POINTS automatic
3 3 3 1 1 1 
CELL_PARAMETERS alat
1.0 0.0 0.0 
0.0 1.0 0.0 
0.0 0.0 1.0