! Edited 23:41   20/7/2020
&CONTROL 
calculation = "scf", 
disk_io = 'low', 
etot_conv_thr = 1.0E-4, 
forc_conv_thr = 1.0D-3, 
nstep = 40, 
outdir = "/scratch", 
prefix = "IEIXBsaRmEviIfgy", 
pseudo_dir = "/opt/pp", 
restart_mode = 'from_scratch', 
tprnfor = .true., 
tstress = .true., 
/ 
&SYSTEM 
celldm(1) = 15.28731795, 
degauss = 0.021, 
ecutrho = 200, 
ecutwfc = 50, 
ibrav = 0, 
nat = 32, 
nspin = 1, 
ntyp = 1, 
occupations = 'smearing', 
smearing = 'mv', 
starting_magnetization(1) = 0, 
/ 
&ELECTRONS 
conv_thr = 1.0D-6, 
diagonalization = 'david', 
mixing_beta = 1.0000000E-01, 
mixing_mode = 'TF', 
mixing_ndim = 10, 
/ 
&IONS 
ion_dynamics = 'bfgs', 
/ 
&CELL 
cell_dynamics = 'bfgs', 
cell_factor = 2.0, 
press = 0.0, 
/ 
ATOMIC_SPECIES 
Al 26.982 Al.pbe-nl-kjpaw_psl.1.0.0.UPF 
ATOMIC_POSITIONS crystal
Al   -0.000719423664861   -0.00063513961046   -0.000518211467539   
Al   0.249504892879   0.24896630267   -0.000513644022186   
Al   0.249160327187   -0.000593214437797   0.249936219716   
Al   -0.000694101201328   0.249782815729   0.24971285572   
Al   -0.000143066821254   -0.000150428960388   0.499108085761   
Al   0.249584457864   0.249011379493   0.499353027542   
Al   0.249401376973   -0.000346696036474   0.749122158295   
Al   -0.000544415648842   0.249572892465   0.749765647655   
Al   -0.000179719288191   0.499561224682   -0.000684978841848   
Al   0.24962477162   0.749697913342   0.000155735634896   
Al   0.249723650177   0.499563328548   0.249847433242   
Al   -0.000577544383959   0.749436855005   0.249396480916   
Al   -0.000434064302118   0.499657863066   0.499543675978   
Al   0.249274008543   0.749472218223   0.499087418909   
Al   0.250018290333   0.498925036805   0.748738543512   
Al   -0.00130944836149   0.748757515609   0.749332172786   
Al   0.499752804391   -0.000854738403676   -0.000731512193292   
Al   0.749170731048   0.249533813202   -0.00111995446074   
Al   0.748617411284   -0.000845723087155   0.24949995057   
Al   0.499296213655   0.249268675975   0.249009643525   
Al   0.499188278265   -6.89090761469e-05   0.499291085783   
Al   0.74948244222   0.248738171193   0.499250519553   
Al   0.749417271254   -0.00079129619488   0.749397128555   
Al   0.499368615565   0.249118899818   0.749335542557   
Al   0.49905134552   0.499576820902   -0.00109215050521   
Al   0.748890992712   0.749541293555   -0.000107449222737   
Al   0.749547045017   0.498949858946   0.249238335758   
Al   0.499521203399   0.748927911537   0.249763932132   
Al   0.498698766262   0.499551016274   0.499426589932   
Al   0.749677056341   0.749320346569   0.49905547912   
Al   0.749240276029   0.499364761394   0.749624261152   
Al   0.499374225849   0.749243246647   0.749181456397   
K_POINTS automatic
3 3 3 1 1 1 
CELL_PARAMETERS alat
1.0 0.0 0.0 
0.0 1.0 0.0 
0.0 0.0 1.0