! Edited 23:41   20/7/2020
&CONTROL 
calculation = "scf", 
disk_io = 'low', 
etot_conv_thr = 1.0E-4, 
forc_conv_thr = 1.0D-3, 
nstep = 40, 
outdir = "/scratch", 
prefix = "iIIvgadNXpKCLkNu", 
pseudo_dir = "/opt/pp", 
restart_mode = 'from_scratch', 
tprnfor = .true., 
tstress = .true., 
/ 
&SYSTEM 
celldm(1) = 15.12118377, 
degauss = 0.021, 
ecutrho = 200, 
ecutwfc = 50, 
ibrav = 0, 
nat = 31, 
nspin = 1, 
ntyp = 1, 
occupations = 'smearing', 
smearing = 'mv', 
starting_magnetization(1) = 0, 
/ 
&ELECTRONS 
conv_thr = 1.0D-6, 
diagonalization = 'david', 
mixing_beta = 1.0000000E-01, 
mixing_mode = 'TF', 
mixing_ndim = 10, 
/ 
&IONS 
ion_dynamics = 'bfgs', 
/ 
&CELL 
cell_dynamics = 'bfgs', 
cell_factor = 2.0, 
press = 0.0, 
/ 
ATOMIC_SPECIES 
Al 26.982 Al.pbe-nl-kjpaw_psl.1.0.0.UPF 
ATOMIC_POSITIONS crystal
Al   -0.000727327864853   -0.000642117794177   -0.000523904979273   
Al   0.249499453211   0.248954945592   -0.000519287352083   
Al   0.249151101827   -0.000599731995925   0.249935518972   
Al   -0.000701727187208   0.249780429558   0.249709700909   
Al   0.249855361325   0.249847918299   0.499098286432   
Al   0.249579892365   -0.000999482332222   0.749345919353   
Al   -0.000605200008397   0.249649494866   0.74911251358   
Al   -0.000550397061989   0.499568199899   -0.000236927139332   
Al   0.249818306163   0.749556403924   -0.000692504601732   
Al   0.249620649042   0.499694594361   0.250157446679   
Al   -0.000279386036664   0.749558530904   0.249845757013   
Al   -0.000583889777554   0.499430667816   0.499389850142   
Al   0.249561166698   0.749654104059   0.499538662415   
Al   0.249266032184   0.499466419564   0.749077392517   
Al   1.84912863531e-05   0.748913226345   0.748724684079   
Al   0.498676164926   -0.00125613538054   -0.000675164531574   
Al   0.74975008849   0.249135870714   -0.000739549208134   
Al   0.749161619994   -0.000471308722746   0.248867740767   
Al   0.498602220989   0.24914498508   0.249494456602   
Al   0.49928848126   -0.000739358972787   0.498998762627   
Al   0.74917936   0.24993033383   0.499283297048   
Al   0.749476755891   -0.00127569233146   0.749242285124   
Al   0.499410868901   0.249200009952   0.749390504896   
Al   0.499361678639   0.499109219302   -0.000671757737001   
Al   0.749040922796   0.749572171496   -0.00110414979914   
Al   0.748878808215   0.499536253816   0.249891370249   
Al   0.499542068469   0.748938321203   0.249229967467   
Al   0.499515942933   0.498916132662   0.49976133849   
Al   0.748684469802   0.749546083357   0.499420289962   
Al   0.749673508208   0.499312879319   0.749045101811   
Al   0.499231929055   0.749357782123   0.749620132966   
K_POINTS automatic
3 3 3 1 1 1 
CELL_PARAMETERS alat
1.0 0.0 0.0 
0.0 1.0 0.0 
0.0 0.0 1.0