! Edited 23:41   20/7/2020
&CONTROL 
calculation = "scf", 
disk_io = 'low', 
etot_conv_thr = 1.0E-4, 
forc_conv_thr = 1.0D-3, 
nstep = 40, 
outdir = "/scratch", 
prefix = "mafFRCiJhNMYEVcL", 
pseudo_dir = "/opt/pp", 
restart_mode = 'from_scratch', 
tprnfor = .true., 
tstress = .true., 
/ 
&SYSTEM 
celldm(1) = 15.26985441, 
degauss = 0.021, 
ecutrho = 200, 
ecutwfc = 50, 
ibrav = 0, 
nat = 32, 
nspin = 1, 
ntyp = 1, 
occupations = 'smearing', 
smearing = 'mv', 
starting_magnetization(1) = 0, 
/ 
&ELECTRONS 
conv_thr = 1.0D-6, 
diagonalization = 'david', 
mixing_beta = 1.0000000E-01, 
mixing_mode = 'TF', 
mixing_ndim = 10, 
/ 
&IONS 
ion_dynamics = 'bfgs', 
/ 
&CELL 
cell_dynamics = 'bfgs', 
cell_factor = 2.0, 
press = 0.0, 
/ 
ATOMIC_SPECIES 
Al 26.982 Al.pbe-nl-kjpaw_psl.1.0.0.UPF 
ATOMIC_POSITIONS crystal
Al   -0.000720246441792   -0.000635865994988   -0.000518804125887   
Al   0.249504326644   0.248965120471   -0.000514231456925   
Al   0.249159366885   -0.000593892874132   0.249936146773   
Al   -0.00069489501794   0.249782567344   0.249712527324   
Al   -0.000143230441227   -0.000150601000153   0.499107065713   
Al   0.249583982625   0.249010248846   0.499352287625   
Al   0.249400692351   -0.000347092539278   0.749121154341   
Al   -0.000545038275896   0.249572403999   0.749765379635   
Al   -0.000179924826168   0.499560722872   -0.000685762225572   
Al   0.249624342486   0.749697567857   0.000155913743698   
Al   0.249723334127   0.499562829143   0.249847258757   
Al   -0.000578204899061   0.749436210958   0.249395790695   
Al   -0.000434560724618   0.499657471777   0.499543154098   
Al   0.249273178255   0.74947161462   0.499086375226   
Al   0.250018311251   0.498923807411   0.748737100834   
Al   -0.00131094592677   0.748756094628   0.749331409018   
Al   0.499752521683   -0.000855715934824   -0.000732348795403   
Al   0.749169782645   0.249533280042   -0.0011212353092   
Al   0.748615830071   -0.000846690307834   0.249499378683   
Al   0.499295408762   0.249267839588   0.249008510893   
Al   0.49918734993   -6.89878847835e-05   0.499290275025   
Al   0.74948185031   0.248736728088   0.499249662402   
Al   0.74941660481   -0.000792201169635   0.749396439074   
Al   0.499367893475   0.249117892138   0.749334782643   
Al   0.499050260581   0.499576336928   -0.00109339955537   
Al   0.748889724383   0.74954076895   -0.000107572108244   
Al   0.74954652699   0.49894865794   0.249237464672   
Al   0.499520655818   0.748926685431   0.249763662151   
Al   0.498697278091   0.499550502789   0.499425934145   
Al   0.749676687003   0.749319569276   0.499054398908   
Al   0.749239407162   0.499364034896   0.749623831434   
Al   0.499373510176   0.749242381177   0.749180520261   
K_POINTS automatic
3 3 3 1 1 1 
CELL_PARAMETERS alat
1.0 0.0 0.0 
0.0 1.0 0.0 
0.0 0.0 1.0