! Edited 2:36   21/4/2020
&CONTROL 
calculation = "scf", 
disk_io = 'low', 
etot_conv_thr = 1.0E-4, 
forc_conv_thr = 1.0D-3, 
nstep = 40, 
outdir = "/opt/scratch", 
prefix = "GkoVVDqtnvxpzyGD", 
pseudo_dir = "/opt/pp", 
restart_mode = 'from_scratch', 
tprnfor = .true., 
tstress = .true., 
/ 
&SYSTEM 
celldm(1) = 14.79445612, 
degauss = 0.02, 
ecutrho = 200, 
ecutwfc = 50, 
ibrav = 0, 
nat = 29, 
nspin = 1, 
ntyp = 1, 
occupations = 'smearing', 
smearing = 'mv', 
starting_magnetization(1) = 0, 
/ 
&ELECTRONS 
conv_thr = 1.0D-6, 
diagonalization = 'david', 
mixing_beta = 1.0000000E-01, 
mixing_mode = 'TF', 
mixing_ndim = 10, 
/ 
&IONS 
ion_dynamics = 'bfgs', 
/ 
&CELL 
cell_dynamics = 'bfgs', 
cell_factor = 2.0, 
press = 0.0, 
/ 
ATOMIC_SPECIES 
Al 26.982 Al.pbe-nl-kjpaw_psl.1.0.0.UPF 
ATOMIC_POSITIONS crystal
Al   -0.000743390511708   -0.000656298622199   -0.000535475140508   
Al   0.249488398903   0.248931866125   -0.000530755535492   
Al   0.249132354365   -0.000612976756264   0.249934094943   
Al   -0.00071722445679   0.249775580462   0.249703289809   
Al   -0.00014783294275   -0.000155440343848   0.499078372571   
Al   0.249570614513   0.248978444635   0.499331474331   
Al   0.249381434473   -0.00035824585227   0.749092913917   
Al   -0.000562552286701   0.249558663824   0.749757840452   
Al   -0.000185706448283   0.499546607342   -0.000707798195447   
Al   0.249612271279   0.749687849641   0.000160923804666   
Al   0.249714443872   0.499548781295   0.24984235064   
Al   -0.000596784670974   0.749418094419   0.249376375309   
Al   -0.000448524700293   0.499646465132   0.499528474021   
Al   0.249249822897   0.749454635726   0.499057017225   
Al   0.250018899657   0.49888922553   0.748696519409   
Al   -0.00135307126391   0.748716123541   0.749309924821   
Al   0.499744569328   -0.000883213119502   -0.000755881756818   
Al   0.74914310482   0.249518282676   -0.00115726457207   
Al   0.748571351787   -0.00087389746714   0.249483291946   
Al   0.49927276775   0.24924431268   0.248976650835   
Al   0.499161236605   -7.12047099368e-05   0.499267469047   
Al   0.749465200324   0.248696134686   0.499225551396   
Al   0.749397858255   -0.000817657399883   0.749377044523   
Al   0.499347581653   0.249089546887   0.749313406853   
Al   0.749019742089   0.749562723133   -0.00112853435685   
Al   0.498854047294   0.74952601223   0.249888971219   
Al   0.749531955296   0.748914874595   0.49921296171   
Al   0.749505252791   0.498892196031   0.749756067778   
Al   0.498655417021   0.749536058851   0.749407487375   
K_POINTS automatic
3 3 3 1 1 1 
CELL_PARAMETERS alat
1.0 0.0 0.0 
0.0 1.0 0.0 
0.0 0.0 1.0