! Edited 23:41   20/7/2020
&CONTROL 
calculation = "scf", 
disk_io = 'low', 
etot_conv_thr = 1.0E-4, 
forc_conv_thr = 1.0D-3, 
nstep = 40, 
outdir = "/scratch", 
prefix = "GTLrZFGfFdUmvuVp", 
pseudo_dir = "/opt/pp", 
restart_mode = 'from_scratch', 
tprnfor = .true., 
tstress = .true., 
/ 
&SYSTEM 
celldm(1) = 15.26051553, 
degauss = 0.021, 
ecutrho = 200, 
ecutwfc = 50, 
ibrav = 0, 
nat = 32, 
nspin = 1, 
ntyp = 1, 
occupations = 'smearing', 
smearing = 'mv', 
starting_magnetization(1) = 0, 
/ 
&ELECTRONS 
conv_thr = 1.0D-6, 
diagonalization = 'david', 
mixing_beta = 1.0000000E-01, 
mixing_mode = 'TF', 
mixing_ndim = 10, 
/ 
&IONS 
ion_dynamics = 'bfgs', 
/ 
&CELL 
cell_dynamics = 'bfgs', 
cell_factor = 2.0, 
press = 0.0, 
/ 
ATOMIC_SPECIES 
Al 26.982 Al.pbe-nl-kjpaw_psl.1.0.0.UPF 
ATOMIC_POSITIONS crystal
Al   -0.000720687206396   -0.000636255121831   -0.000519121615127   
Al   0.24950402331   0.248964487162   -0.000514546147857   
Al   0.249158852449   -0.000594256314953   0.249936107697   
Al   -0.000695320268395   0.249782434283   0.249712351401   
Al   -0.000143318093043   -0.000150693162483   0.49910651927   
Al   0.249583728037   0.249009643155   0.499351891248   
Al   0.249400325597   -0.000347304947278   0.74912061652   
Al   -0.000545371819481   0.249572142326   0.749765236056   
Al   -0.000180034933612   0.49956045405   -0.000686181887091   
Al   0.249624112597   0.74969738278   0.000156009157234   
Al   0.249723164817   0.499562561611   0.249847165285   
Al   -0.000578558739412   0.74943586594   0.249395420941   
Al   -0.000434826659963   0.499657262162   0.499542874525   
Al   0.249272733466   0.749471291267   0.49908581612   
Al   0.250018322457   0.49892314882   0.748736327985   
Al   -0.00131174817796   0.748755333403   0.749330999865   
Al   0.499752370235   -0.000856239601827   -0.000732796966208   
Al   0.749169274582   0.249532994426   -0.00112192146439   
Al   0.748614983009   -0.000847208451482   0.249499072321   
Al   0.499294977578   0.249267391532   0.249007904138   
Al   0.499186852618   -6.90301028577e-05   0.499289840699   
Al   0.749481533221   0.248735955011   0.499249203222   
Al   0.749416247793   -0.000792685967913   0.749396069717   
Al   0.499367506649   0.24911735232   0.749334375554   
Al   0.499049679375   0.499576077662   -0.00109406867609   
Al   0.748889044935   0.749540487917   -0.000107637938459   
Al   0.749546249481   0.498948014557   0.249236998028   
Al   0.499520362477   0.748926028602   0.249763517521   
Al   0.498696480873   0.499550227713   0.499425582838   
Al   0.749676489148   0.749319152877   0.499053820235   
Al   0.749238941707   0.499363645709   0.749623601233   
Al   0.499373126787   0.749241917542   0.749180018769   
K_POINTS automatic
3 3 3 1 1 1 
CELL_PARAMETERS alat
1.0 0.0 0.0 
0.0 1.0 0.0 
0.0 0.0 1.0