! Edited 23:41   20/7/2020
&CONTROL 
calculation = "scf", 
disk_io = 'low', 
etot_conv_thr = 1.0E-4, 
forc_conv_thr = 1.0D-3, 
nstep = 40, 
outdir = "/scratch", 
prefix = "LWMTjzkHWuZsfmjh", 
pseudo_dir = "/opt/pp", 
restart_mode = 'from_scratch', 
tprnfor = .true., 
tstress = .true., 
/ 
&SYSTEM 
celldm(1) = 14.79572406, 
degauss = 0.021, 
ecutrho = 200, 
ecutwfc = 50, 
ibrav = 0, 
nat = 29, 
nspin = 1, 
ntyp = 1, 
occupations = 'smearing', 
smearing = 'mv', 
starting_magnetization(1) = 0, 
/ 
&ELECTRONS 
conv_thr = 1.0D-6, 
diagonalization = 'david', 
mixing_beta = 1.0000000E-01, 
mixing_mode = 'TF', 
mixing_ndim = 10, 
/ 
&IONS 
ion_dynamics = 'bfgs', 
/ 
&CELL 
cell_dynamics = 'bfgs', 
cell_factor = 2.0, 
press = 0.0, 
/ 
ATOMIC_SPECIES 
Al 26.982 Al.pbe-nl-kjpaw_psl.1.0.0.UPF 
ATOMIC_POSITIONS crystal
Al   -0.000743326805831   -0.000656242379782   -0.000535429252227   
Al   0.249488442745   0.24893195766   -0.000530710051663   
Al   0.249132428719   -0.000612924226375   0.249934100591   
Al   -0.00071716299325   0.249775599694   0.249703315236   
Al   -0.000147820274002   -0.000155427023173   0.499078451551   
Al   0.249570651309   0.248978532179   0.499331531622   
Al   0.249381487482   -0.000358215151897   0.749092991651   
Al   -0.000562504078007   0.249558701645   0.749757861204   
Al   -0.000185690533913   0.499546646196   -0.000707737539704   
Al   0.249612304506   0.749687876391   0.000160910014078   
Al   0.249714468343   0.499548819963   0.24984236415   
Al   -0.000596733528688   0.749418144286   0.249376428751   
Al   0.249551513737   0.749646495428   0.499528514429   
Al   0.249249887184   0.499454682461   0.749057098035   
Al   1.88980368893e-05   0.74888932072   0.748696631113   
Al   0.748647044689   0.248716233565   -0.00069001604217   
Al   0.749744591217   -0.000883137431334   0.24924418302   
Al   0.499143178253   0.249518323958   0.248842834601   
Al   0.498571474217   -0.000873822577291   0.499483336226   
Al   0.749272830071   0.249244377439   0.498976738533   
Al   0.749161308484   -7.11986079509e-05   0.749267531822   
Al   0.499465246155   0.248696246422   0.749225617764   
Al   0.499397909857   0.49918241267   -0.00062290209202   
Al   0.749347637563   0.74908962491   -0.000686534308758   
Al   0.749019826093   0.499562760606   0.248871562354   
Al   0.498854145498   0.749526052849   0.249888980734   
Al   0.499531995406   0.498914967586   0.499213029157   
Al   0.74950529519   0.748892290966   0.499756088682   
Al   0.748655532247   0.499536098609   0.749407538152   
K_POINTS automatic
3 3 3 1 1 1 
CELL_PARAMETERS alat
1.0 0.0 0.0 
0.0 1.0 0.0 
0.0 0.0 1.0