! Edited 2:36   21/4/2020
&CONTROL 
calculation = "scf", 
disk_io = 'low', 
etot_conv_thr = 1.0E-4, 
forc_conv_thr = 1.0D-3, 
nstep = 40, 
outdir = "/opt/scratch", 
prefix = "NBjYNZUXeVmOdkBn", 
pseudo_dir = "/opt/pp", 
restart_mode = 'from_scratch', 
tprnfor = .true., 
tstress = .true., 
/ 
&SYSTEM 
celldm(1) = 15.2787047, 
degauss = 0.02, 
ecutrho = 200, 
ecutwfc = 50, 
ibrav = 0, 
nat = 32, 
nspin = 1, 
ntyp = 1, 
occupations = 'smearing', 
smearing = 'mv', 
starting_magnetization(1) = 0, 
/ 
&ELECTRONS 
conv_thr = 1.0D-6, 
diagonalization = 'david', 
mixing_beta = 1.0000000E-01, 
mixing_mode = 'TF', 
mixing_ndim = 10, 
/ 
&IONS 
ion_dynamics = 'bfgs', 
/ 
&CELL 
cell_dynamics = 'bfgs', 
cell_factor = 2.0, 
press = 0.0, 
/ 
ATOMIC_SPECIES 
Al 26.982 Al.pbe-nl-kjpaw_psl.1.0.0.UPF 
ATOMIC_POSITIONS crystal
Al   -0.000719829234312   -0.000635497665436   -0.000518503605191   
Al   0.249504613766   0.248965719931   -0.000513933584977   
Al   0.249159853828   -0.000593548857786   0.24993618376   
Al   -0.000694492495439   0.249782693293   0.249712693845   
Al   -0.000143147474053   -0.000150513763535   0.499107582951   
Al   0.249584223606   0.249010822166   0.499352662816   
Al   0.249401039504   -0.000346891483646   0.749121663418   
Al   -0.000544722558897   0.249572651687   0.74976551554   
Al   -0.000179820603531   0.499560977326   -0.000685364993301   
Al   0.249624560088   0.749697743043   0.000155823429639   
Al   0.249723494387   0.499563082377   0.249847347233   
Al   -0.000577869970077   0.749436537537   0.249396140687   
Al   -0.000434309002465   0.499657670189   0.499543418729   
Al   0.249273599271   0.749471920691   0.499086904449   
Al   0.250018300644   0.498924430803   0.748737832376   
Al   -0.00131018655274   0.748756815168   0.749331796304   
Al   0.499752665036   -0.000855220255751   -0.000731924577556   
Al   0.749170263554   0.249533550393   -0.00112058582628   
Al   0.74861663186   -0.000846199856915   0.249499668671   
Al   0.499295816901   0.249268263696   0.24900908522   
Al   0.499187820663   -6.89479230983e-05   0.499290686138   
Al   0.749482150451   0.248737459846   0.49925009704   
Al   0.749416942745   -0.000791742281907   0.74939678869   
Al   0.499368259627   0.249118403105   0.749335167975   
Al   0.499050810724   0.499576582338   -0.0010927661965   
Al   0.748890367518   0.749541034963   -0.000107509796394   
Al   0.749546789667   0.498949266937   0.249237906376   
Al   0.499520933482   0.748927307156   0.249763799051   
Al   0.498698032702   0.499550763163   0.499426266677   
Al   0.749676874285   0.74931996342   0.499054946654   
Al   0.74923984774   0.499364403283   0.749624049332   
Al   0.499373873074   0.749242820033   0.74918099495   
K_POINTS automatic
3 3 3 1 1 1 
CELL_PARAMETERS alat
1.0 0.0 0.0 
0.0 1.0 0.0 
0.0 0.0 1.0