! Edited 23:41   20/7/2020
&CONTROL 
calculation = "scf", 
disk_io = 'low', 
etot_conv_thr = 1.0E-4, 
forc_conv_thr = 1.0D-3, 
nstep = 40, 
outdir = "/scratch", 
prefix = "DCeyORDZgWyxEyaZ", 
pseudo_dir = "/opt/pp", 
restart_mode = 'from_scratch', 
tprnfor = .true., 
tstress = .true., 
/ 
&SYSTEM 
celldm(1) = 15.26661835, 
degauss = 0.021, 
ecutrho = 200, 
ecutwfc = 50, 
ibrav = 0, 
nat = 32, 
nspin = 1, 
ntyp = 1, 
occupations = 'smearing', 
smearing = 'mv', 
starting_magnetization(1) = 0, 
/ 
&ELECTRONS 
conv_thr = 1.0D-6, 
diagonalization = 'david', 
mixing_beta = 1.0000000E-01, 
mixing_mode = 'TF', 
mixing_ndim = 10, 
/ 
&IONS 
ion_dynamics = 'bfgs', 
/ 
&CELL 
cell_dynamics = 'bfgs', 
cell_factor = 2.0, 
press = 0.0, 
/ 
ATOMIC_SPECIES 
Al 26.982 Al.pbe-nl-kjpaw_psl.1.0.0.UPF 
ATOMIC_POSITIONS crystal
Al   -0.00072039911219   -0.000636000779291   -0.000518914096624   
Al   0.249504221576   0.248964901107   -0.000514340458395   
Al   0.249159188697   -0.000594018761407   0.249936133238   
Al   -0.000695042314605   0.249782521255   0.249712466389   
Al   -0.000143260801735   -0.000150632922997   0.499106876438   
Al   0.249583894442   0.249010039049   0.499352150329   
Al   0.249400565316   -0.000347166112368   0.749120968053   
Al   -0.000545153807478   0.249572313361   0.749765329903   
Al   -0.000179962964773   0.499560629759   -0.000685907586362   
Al   0.249624262858   0.749697503751   0.000155946792683   
Al   0.249723275482   0.499562736476   0.24984722638   
Al   -0.000578327460961   0.749436091452   0.249395662621   
Al   -0.00043465283831   0.499657399171   0.499543057261   
Al   0.249273024191   0.749471502618   0.499086181565   
Al   0.250018315133   0.498923579291   0.748736833137   
Al   -0.00131122380754   0.748755830958   0.749331267297   
Al   0.499752469225   -0.000855897320645   -0.000732504031133   
Al   0.749169606664   0.249533181112   -0.00112147297707   
Al   0.748615536668   -0.000846869780497   0.249499272566   
Al   0.49929525941   0.249267684392   0.249008300727   
Al   0.499187177673   -6.90025081224e-05   0.499290124585   
Al   0.749481740478   0.248736460313   0.499249503353   
Al   0.749416481148   -0.000792369092253   0.749396311137   
Al   0.499367759487   0.249117705158   0.749334641637   
Al   0.499050059265   0.499576247125   -0.0010936313229   
Al   0.748889489039   0.749540671607   -0.000107594910268   
Al   0.749546430868   0.498948435087   0.249237303038   
Al   0.499520554212   0.748926457921   0.249763612054   
Al   0.498697001954   0.499550407509   0.499425812461   
Al   0.749676618471   0.749319425045   0.49905419847   
Al   0.749239245939   0.499363900091   0.749623751698   
Al   0.499373377379   0.749242220585   0.749180346556   
K_POINTS automatic
3 3 3 1 1 1 
CELL_PARAMETERS alat
1.0 0.0 0.0 
0.0 1.0 0.0 
0.0 0.0 1.0