! Edited 23:41   20/7/2020
&CONTROL 
calculation = "scf", 
disk_io = 'low', 
etot_conv_thr = 1.0E-4, 
forc_conv_thr = 1.0D-3, 
nstep = 40, 
outdir = "/scratch", 
prefix = "xUorMwpGdVVEhqNI", 
pseudo_dir = "/opt/pp", 
restart_mode = 'from_scratch', 
tprnfor = .true., 
tstress = .true., 
/ 
&SYSTEM 
celldm(1) = 15.43595682, 
degauss = 0.021, 
ecutrho = 200, 
ecutwfc = 50, 
ibrav = 0, 
nat = 33, 
nspin = 1, 
ntyp = 1, 
occupations = 'smearing', 
smearing = 'mv', 
starting_magnetization(1) = 0, 
/ 
&ELECTRONS 
conv_thr = 1.0D-6, 
diagonalization = 'david', 
mixing_beta = 1.0000000E-01, 
mixing_mode = 'TF', 
mixing_ndim = 10, 
/ 
&IONS 
ion_dynamics = 'bfgs', 
/ 
&CELL 
cell_dynamics = 'bfgs', 
cell_factor = 2.0, 
press = 0.0, 
/ 
ATOMIC_SPECIES 
Al 26.982 Al.pbe-nl-kjpaw_psl.1.0.0.UPF 
ATOMIC_POSITIONS crystal
Al   -0.000712496052803   -0.000629023602551   -0.000513221406485   
Al   0.249509660459   0.248976256546   -0.000508697942852   
Al   0.249168412725   -0.000587502143786   0.249936833881   
Al   -0.000687417429182   0.249784907081   0.249715620745   
Al   -0.000141689174835   -0.000148980421049   0.499116674352   
Al   0.249588459282   0.249020899307   0.499359257493   
Al   0.249407141349   -0.000343357564638   0.749130611376   
Al   -0.00053917325747   0.249577005251   0.749767904325   
Al   -0.000177988700822   0.499565449822   -0.000678382912473   
Al   0.249628384841   0.749700822253   0.000154235995511   
Al   0.249726311258   0.499567533428   0.249848902367   
Al   -0.000571982983029   0.749442277749   0.249402292437   
Al   0.249570115473   0.249661157636   0.249548070101   
Al   -0.000719000601121   0.499477300441   0.49909620651   
Al   0.250018114208   0.748935388046   0.498750690571   
Al   0.248703160829   0.498769479978   0.749338603556   
Al   -0.00024481526575   0.749153492207   0.749275531824   
Al   0.499178716403   -0.000461697703107   -0.00110916998087   
Al   0.748630724772   0.249162420711   -0.000495234258635   
Al   0.74930299069   -0.000724281820031   0.249019180055   
Al   0.499196094651   0.249931754476   0.249297912195   
Al   0.499487425987   -0.00124967816398   0.499257736594   
Al   0.749422882577   0.249216323506   0.49940293384   
Al   0.749374695413   -0.000872615723401   0.749341940878   
Al   0.499060480486   0.249580895859   0.748918366239   
Al   0.498901671777   0.499545710619   -0.000106414552115   
Al   0.749551406698   0.748959971165   -0.000754329878965   
Al   0.749525813919   0.498938235096   0.249766205322   
Al   0.498711296351   0.749555339714   0.249432111522   
Al   0.499680166092   0.499326891218   0.499064574281   
Al   0.749247591708   0.749370878355   0.499627879288   
Al   0.749380251673   0.499250533721   0.749189338474   
Al   0.499064643703   0.748888776968   0.749330030312   
K_POINTS automatic
3 3 3 1 1 1 
CELL_PARAMETERS alat
1.0 0.0 0.0 
0.0 1.0 0.0 
0.0 0.0 1.0