! Edited 23:41   20/7/2020
&CONTROL 
calculation = "scf", 
disk_io = 'low', 
etot_conv_thr = 1.0E-4, 
forc_conv_thr = 1.0D-3, 
nstep = 40, 
outdir = "/scratch", 
prefix = "UDIfSwsjAhjhkaIz", 
pseudo_dir = "/opt/pp", 
restart_mode = 'from_scratch', 
tprnfor = .true., 
tstress = .true., 
/ 
&SYSTEM 
celldm(1) = 15.42083758, 
degauss = 0.021, 
ecutrho = 200, 
ecutwfc = 50, 
ibrav = 0, 
nat = 33, 
nspin = 1, 
ntyp = 1, 
occupations = 'smearing', 
smearing = 'mv', 
starting_magnetization(1) = 0, 
/ 
&ELECTRONS 
conv_thr = 1.0D-6, 
diagonalization = 'david', 
mixing_beta = 1.0000000E-01, 
mixing_mode = 'TF', 
mixing_ndim = 10, 
/ 
&IONS 
ion_dynamics = 'bfgs', 
/ 
&CELL 
cell_dynamics = 'bfgs', 
cell_factor = 2.0, 
press = 0.0, 
/ 
ATOMIC_SPECIES 
Al 26.982 Al.pbe-nl-kjpaw_psl.1.0.0.UPF 
ATOMIC_POSITIONS crystal
Al   -0.000713194614004   -0.000629640323839   -0.000513724590412   
Al   0.24950917971   0.248975252825   -0.000509196691784   
Al   0.249167597402   -0.000588078155683   0.249936771951   
Al   -0.000688091402242   0.249784696195   0.249715341927   
Al   -0.000141828092882   -0.000149126487742   0.499115808302   
Al   0.24958805579   0.249019939355   0.499358629282   
Al   0.249406560085   -0.000343694206886   0.749129758991   
Al   -0.000539701885688   0.249576590529   0.749767676769   
Al   0.499821836792   0.49956502377   0.499320951972   
Al   -0.0003719795066   0.499700528926   0.00015438721499   
Al   0.249726042922   0.749567109419   -0.000151245775898   
Al   0.249427456221   0.499441730934   0.24940170642   
Al   -0.000430306003989   0.749660825421   0.24954762701   
Al   -0.000719705539656   0.499476787964   0.499095320392   
Al   0.250018131968   0.748934344256   0.498749465695   
Al   0.248701889353   0.498768273524   0.749337955095   
Al   -0.000245055292969   0.749152662255   0.749274821525   
Al   0.499177911182   -0.000462150371021   -0.00111025745793   
Al   0.748629382276   0.249161599513   -0.000495719807203   
Al   0.749302307312   -0.000724991936496   0.249018218418   
Al   0.499195306469   0.249931687566   0.249297223839   
Al   0.499486923438   -0.00125090340119   0.499257008848   
Al   0.749422316747   0.249215555156   0.499402348451   
Al   0.749374082338   -0.000873471272684   0.749341295689   
Al   0.499059559341   0.249580484952   0.74891730576   
Al   0.49890059493   0.499545265214   -0.000106518885433   
Al   0.749550966878   0.748958951477   -0.000755069455815   
Al   0.749525349007   0.498937194097   0.2497659761   
Al   0.498710032851   0.74955490375   0.24943155474   
Al   0.499679852514   0.499326231274   0.499063657151   
Al   0.749246854015   0.749370261538   0.499627514446   
Al   0.749379644046   0.499249798913   0.749188543667   
Al   0.499063726641   0.748887687478   0.749329373446   
K_POINTS automatic
3 3 3 1 1 1 
CELL_PARAMETERS alat
1.0 0.0 0.0 
0.0 1.0 0.0 
0.0 0.0 1.0