! Edited 23:41   20/7/2020
&CONTROL 
calculation = "scf", 
disk_io = 'low', 
etot_conv_thr = 1.0E-4, 
forc_conv_thr = 1.0D-3, 
nstep = 40, 
outdir = "/scratch", 
prefix = "DOokdlDbeKLkuhQu", 
pseudo_dir = "/opt/pp", 
restart_mode = 'from_scratch', 
tprnfor = .true., 
tstress = .true., 
/ 
&SYSTEM 
celldm(1) = 15.27170404, 
degauss = 0.021, 
ecutrho = 200, 
ecutwfc = 50, 
ibrav = 0, 
nat = 32, 
nspin = 1, 
ntyp = 1, 
occupations = 'smearing', 
smearing = 'mv', 
starting_magnetization(1) = 0, 
/ 
&ELECTRONS 
conv_thr = 1.0D-6, 
diagonalization = 'david', 
mixing_beta = 1.0000000E-01, 
mixing_mode = 'TF', 
mixing_ndim = 10, 
/ 
&IONS 
ion_dynamics = 'bfgs', 
/ 
&CELL 
cell_dynamics = 'bfgs', 
cell_factor = 2.0, 
press = 0.0, 
/ 
ATOMIC_SPECIES 
Al 26.982 Al.pbe-nl-kjpaw_psl.1.0.0.UPF 
ATOMIC_POSITIONS crystal
Al   -0.000720159209259   -0.000635788982179   -0.000518741291008   
Al   0.249504386678   0.24896524581   -0.000514169175864   
Al   0.249159468699   -0.000593820944891   0.249936154507   
Al   -0.00069481085584   0.249782593678   0.249712562141   
Al   -0.000143213093895   -0.000150582760137   0.49910717386   
Al   0.249584033011   0.24901036872   0.499352366072   
Al   0.249400764936   -0.000347050501221   0.749121260783   
Al   -0.000544972263672   0.249572455787   0.749765408051   
Al   -0.000179903034601   0.499560776075   -0.000685679169589   
Al   0.249624387983   0.749697604486   0.00015589486023   
Al   0.249723367635   0.499562882091   0.249847277256   
Al   -0.000578134869867   0.749436279241   0.249395863873   
Al   -0.000434508092865   0.499657513262   0.499543209429   
Al   0.249273266284   0.749471678615   0.499086485879   
Al   0.250018309033   0.498923937754   0.748737253789   
Al   -0.00131078715176   0.748756245283   0.749331489994   
Al   0.499752551656   -0.000855612294925   -0.000732260097096   
Al   0.749169883196   0.249533336569   -0.00112109951096   
Al   0.748615997714   -0.000846587761073   0.249499439315   
Al   0.499295494099   0.249267928263   0.249008630977   
Al   0.499187448354   -6.89795293268e-05   0.499290360983   
Al   0.749481913065   0.248736881089   0.499249753279   
Al   0.749416675468   -0.000792105222316   0.749396512174   
Al   0.499367970032   0.249117998974   0.749334863211   
Al   0.499050375609   0.49957638824   -0.00109326712845   
Al   0.748889858854   0.74954082457   -0.000107559079665   
Al   0.749546581913   0.498948785273   0.249237557026   
Al   0.499520713874   0.748926815425   0.249763690775   
Al   0.49869743587   0.49955055723   0.499426003673   
Al   0.749676726161   0.749319651686   0.499054513435   
Al   0.749239499281   0.499364111921   0.749623876994   
Al   0.499373586053   0.749242472936   0.749180619512   
K_POINTS automatic
3 3 3 1 1 1 
CELL_PARAMETERS alat
1.0 0.0 0.0 
0.0 1.0 0.0 
0.0 0.0 1.0