! Edited 23:41   20/7/2020
&CONTROL 
calculation = "scf", 
disk_io = 'low', 
etot_conv_thr = 1.0E-4, 
forc_conv_thr = 1.0D-3, 
nstep = 40, 
outdir = "/scratch", 
prefix = "jXztlOlujcQSMlTy", 
pseudo_dir = "/opt/pp", 
restart_mode = 'from_scratch', 
tprnfor = .true., 
tstress = .true., 
/ 
&SYSTEM 
celldm(1) = 15.27785843, 
degauss = 0.021, 
ecutrho = 200, 
ecutwfc = 50, 
ibrav = 0, 
nat = 32, 
nspin = 1, 
ntyp = 1, 
occupations = 'smearing', 
smearing = 'mv', 
starting_magnetization(1) = 0, 
/ 
&ELECTRONS 
conv_thr = 1.0D-6, 
diagonalization = 'david', 
mixing_beta = 1.0000000E-01, 
mixing_mode = 'TF', 
mixing_ndim = 10, 
/ 
&IONS 
ion_dynamics = 'bfgs', 
/ 
&CELL 
cell_dynamics = 'bfgs', 
cell_factor = 2.0, 
press = 0.0, 
/ 
ATOMIC_SPECIES 
Al 26.982 Al.pbe-nl-kjpaw_psl.1.0.0.UPF 
ATOMIC_POSITIONS crystal
Al   -0.00071986910704   -0.000635532866876   -0.000518532326104   
Al   0.249504586326   0.248965662641   -0.000513962052748   
Al   0.24915980729   -0.0005935817356   0.249936180226   
Al   -0.000694530964715   0.249782681256   0.24971267793   
Al   -0.000143155403267   -0.000150522100782   0.499107533518   
Al   0.249584200575   0.249010767374   0.499352626959   
Al   0.249401006326   -0.000346910698634   0.749121614766   
Al   -0.000544752732128   0.249572628015   0.749765502552   
Al   -0.000179830564141   0.499560953008   -0.000685402956987   
Al   0.249624539291   0.749697726301   0.000155832060999   
Al   0.249723479071   0.499563058176   0.249847338778   
Al   -0.000577901979408   0.749436506325   0.249396107238   
Al   -0.000434333059677   0.499657651226   0.499543393438   
Al   0.249273559034   0.749471891439   0.499086853871   
Al   0.250018301658   0.498924371225   0.748737762462   
Al   -0.00131025912649   0.748756746306   0.74933175929   
Al   0.499752651336   -0.000855267628048   -0.000731965120268   
Al   0.749170217593   0.249533524555   -0.00112064789769   
Al   0.748616555233   -0.000846246729555   0.249499640956   
Al   0.499295777895   0.249268223164   0.249009030331   
Al   0.499187775675   -6.89517422566e-05   0.499290646848   
Al   0.749482121767   0.248737389912   0.499250055501   
Al   0.749416910449   -0.000791786138036   0.749396755277   
Al   0.499368224633   0.249118354271   0.749335131148   
Al   0.499050758146   0.499576558884   -0.00109282672692   
Al   0.748890306053   0.74954100954   -0.000107515751569   
Al   0.749546764563   0.498949208735   0.249237864162   
Al   0.499520906945   0.748927247737   0.249763785967   
Al   0.498697960583   0.499550738279   0.499426234896   
Al   0.749676856386   0.749319925751   0.499054894306   
Al   0.749239805634   0.499364368076   0.749624028508   
Al   0.499373838392   0.749242778091   0.749180949584   
K_POINTS automatic
3 3 3 1 1 1 
CELL_PARAMETERS alat
1.0 0.0 0.0 
0.0 1.0 0.0 
0.0 0.0 1.0