! Edited 23:41   20/7/2020
&CONTROL 
calculation = "scf", 
disk_io = 'low', 
etot_conv_thr = 1.0E-4, 
forc_conv_thr = 1.0D-3, 
nstep = 40, 
outdir = "/scratch", 
prefix = "LgxmcyaJQylMOfra", 
pseudo_dir = "/opt/pp", 
restart_mode = 'from_scratch', 
tprnfor = .true., 
tstress = .true., 
/ 
&SYSTEM 
celldm(1) = 15.26752604, 
degauss = 0.021, 
ecutrho = 200, 
ecutwfc = 50, 
ibrav = 0, 
nat = 32, 
nspin = 1, 
ntyp = 1, 
occupations = 'smearing', 
smearing = 'mv', 
starting_magnetization(1) = 0, 
/ 
&ELECTRONS 
conv_thr = 1.0D-6, 
diagonalization = 'david', 
mixing_beta = 1.0000000E-01, 
mixing_mode = 'TF', 
mixing_ndim = 10, 
/ 
&IONS 
ion_dynamics = 'bfgs', 
/ 
&CELL 
cell_dynamics = 'bfgs', 
cell_factor = 2.0, 
press = 0.0, 
/ 
ATOMIC_SPECIES 
Al 26.982 Al.pbe-nl-kjpaw_psl.1.0.0.UPF 
ATOMIC_POSITIONS crystal
Al   -0.000720356282784   -0.000635962967563   -0.000518883245972   
Al   0.249504251052   0.248964962647   -0.000514309879656   
Al   0.249159238685   -0.000593983445607   0.249936137035   
Al   -0.00069500099272   0.249782534184   0.249712483483   
Al   -0.000143252284547   -0.000150623967519   0.499106929536   
Al   0.24958391918   0.249010097904   0.499352188846   
Al   0.249400600954   -0.000347145472534   0.749121020313   
Al   -0.000545121396813   0.249572338788   0.749765343854   
Al   -0.000179952265556   0.49956065588   -0.000685866807558   
Al   0.249624285196   0.749697521735   0.000155937521283   
Al   0.249723291934   0.499562762473   0.249847235463   
Al   -0.000578293078045   0.749436124978   0.24939569855   
Al   -0.000434626997186   0.49965741954   0.499543084427   
Al   0.249273067411   0.749471534039   0.499086235893   
Al   0.250018314044   0.498923643287   0.748736908235   
Al   -0.00131114585223   0.748755904927   0.749331307055   
Al   0.499752483941   -0.000855846435555   -0.000732460482062   
Al   0.749169656033   0.249533208865   -0.00112140630289   
Al   0.748615618978   -0.000846819432115   0.249499302335   
Al   0.499295301309   0.24926772793   0.249008359686   
Al   0.499187225997   -6.89984057625e-05   0.499290166789   
Al   0.749481771289   0.248736535433   0.499249547972   
Al   0.749416515839   -0.000792321984064   0.749396347028   
Al   0.499367797076   0.249117757612   0.749334681194   
Al   0.499050115741   0.499576272318   -0.00109356630397   
Al   0.748889555061   0.749540698915   -0.0001075885135   
Al   0.749546457833   0.498948497605   0.249237348382   
Al   0.499520582716   0.748926521746   0.249763626108   
Al   0.49869707942   0.499550434238   0.499425846597   
Al   0.749676637697   0.749319465507   0.4990542547   
Al   0.749239291168   0.499363937909   0.749623774067   
Al   0.499373414633   0.749242265637   0.749180395286   
K_POINTS automatic
3 3 3 1 1 1 
CELL_PARAMETERS alat
1.0 0.0 0.0 
0.0 1.0 0.0 
0.0 0.0 1.0