! Edited 23:41   20/7/2020
&CONTROL 
calculation = "scf", 
disk_io = 'low', 
etot_conv_thr = 1.0E-4, 
forc_conv_thr = 1.0D-3, 
nstep = 40, 
outdir = "/scratch", 
prefix = "yqyetTBCTOQKthTW", 
pseudo_dir = "/opt/pp", 
restart_mode = 'from_scratch', 
tprnfor = .true., 
tstress = .true., 
/ 
&SYSTEM 
celldm(1) = 15.10273997, 
degauss = 0.021, 
ecutrho = 200, 
ecutwfc = 50, 
ibrav = 0, 
nat = 31, 
nspin = 1, 
ntyp = 1, 
occupations = 'smearing', 
smearing = 'mv', 
starting_magnetization(1) = 0, 
/ 
&ELECTRONS 
conv_thr = 1.0D-6, 
diagonalization = 'david', 
mixing_beta = 1.0000000E-01, 
mixing_mode = 'TF', 
mixing_ndim = 10, 
/ 
&IONS 
ion_dynamics = 'bfgs', 
/ 
&CELL 
cell_dynamics = 'bfgs', 
cell_factor = 2.0, 
press = 0.0, 
/ 
ATOMIC_SPECIES 
Al 26.982 Al.pbe-nl-kjpaw_psl.1.0.0.UPF 
ATOMIC_POSITIONS crystal
Al   -0.000728216093724   -0.000642901962626   -0.000524544783618   
Al   0.249498841932   0.248953669349   -0.00051992151728   
Al   0.249150065134   -0.0006004644019   0.249935440226   
Al   -0.000702584151965   0.249780161414   0.249709346389   
Al   -0.000144815310927   -0.000152267426368   0.49909718524   
Al   0.24957937932   0.248999297078   0.499345120575   
Al   0.249394060908   -0.00035093317849   0.749111429762   
Al   -0.000551069219052   0.249567672575   0.74976278352   
Al   -0.000181915725609   0.499555862194   -0.000693350303664   
Al   0.24962018577   0.749694221393   0.000157638956343   
Al   0.249720272771   0.499557991772   0.249845568649   
Al   -0.000584602836661   0.749429972535   0.249389105014   
Al   -0.000439369214487   0.499653681643   0.499538099019   
Al   0.249265135846   0.749465767944   0.499076265809   
Al   0.250018513868   0.498911899153   0.748723126635   
Al   -0.00132545177106   0.748742330599   0.749324010943   
Al   0.499749783292   -0.000865184580217   -0.00074045236198   
Al   0.749160596146   0.249528115705   -0.00113364197257   
Al   0.74860051399   -0.000856059083098   0.249493839221   
Al   0.499287612338   0.249259738106   0.248997539894   
Al   0.499178357816   -6.97512477067e-05   0.499282421795   
Al   0.749476116893   0.248722749765   0.499241359786   
Al   0.749410149441   -0.000800967013124   0.749389760567   
Al   0.499360899106   0.499108131461   -0.000672578102403   
Al   0.749039751549   0.749571649023   -0.00110549821129   
Al   0.748877438991   0.499535687479   0.249891237588   
Al   0.499541509233   0.748937024658   0.249229027086   
Al   0.499515351792   0.498914809019   0.499761047031   
Al   0.748682863247   0.749545529024   0.499419582007   
Al   0.749673109489   0.499312040192   0.749043935668   
Al   0.49923099107   0.749356997832   0.749619669064   
K_POINTS automatic
3 3 3 1 1 1 
CELL_PARAMETERS alat
1.0 0.0 0.0 
0.0 1.0 0.0 
0.0 0.0 1.0