! Edited 23:41   20/7/2020
&CONTROL 
calculation = "scf", 
disk_io = 'low', 
etot_conv_thr = 1.0E-4, 
forc_conv_thr = 1.0D-3, 
nstep = 40, 
outdir = "/scratch", 
prefix = "RlLckEmHImHvsLsA", 
pseudo_dir = "/opt/pp", 
restart_mode = 'from_scratch', 
tprnfor = .true., 
tstress = .true., 
/ 
&SYSTEM 
celldm(1) = 15.10697748, 
degauss = 0.021, 
ecutrho = 200, 
ecutwfc = 50, 
ibrav = 0, 
nat = 31, 
nspin = 1, 
ntyp = 1, 
occupations = 'smearing', 
smearing = 'mv', 
starting_magnetization(1) = 0, 
/ 
&ELECTRONS 
conv_thr = 1.0D-6, 
diagonalization = 'david', 
mixing_beta = 1.0000000E-01, 
mixing_mode = 'TF', 
mixing_ndim = 10, 
/ 
&IONS 
ion_dynamics = 'bfgs', 
/ 
&CELL 
cell_dynamics = 'bfgs', 
cell_factor = 2.0, 
press = 0.0, 
/ 
ATOMIC_SPECIES 
Al 26.982 Al.pbe-nl-kjpaw_psl.1.0.0.UPF 
ATOMIC_POSITIONS crystal
Al   -0.000728011828974   -0.000642721628505   -0.000524397648708   
Al   0.249498982507   0.248953962845   -0.000519775679197   
Al   0.249150303541   -0.000600295971523   0.249935458335   
Al   -0.00070238707698   0.249780223078   0.249709427918   
Al   -0.000144774690206   -0.000152224715327   0.49909743848   
Al   0.249579497305   0.248999577775   0.499345304269   
Al   0.249394230874   -0.000350834741668   0.749111679006   
Al   -0.000550914644033   0.249567793843   0.749762850059   
Al   -0.000181864698214   0.499555986775   -0.000693155818775   
Al   0.249620292308   0.749694307164   0.000157594738587   
Al   0.249720351234   0.499558115755   0.249845611967   
Al   -0.000584438855456   0.749430132427   0.24938927637   
Al   -0.00043924597134   0.499653778785   0.499538228582   
Al   0.249265341975   0.749465917796   0.499076524916   
Al   0.250018508675   0.498912204366   0.748723484798   
Al   -0.0013250799816   0.748742683376   0.749324200558   
Al   0.499749853478   -0.000864941895781   -0.000740244664954   
Al   0.749160831599   0.249528248068   -0.00113332398578   
Al   0.748600906546   -0.000855818958366   0.249493981199   
Al   0.499287812163   0.249259945749   0.248997821084   
Al   0.499178588287   -6.97316824687e-05   0.499282623076   
Al   0.749476263843   0.248723108034   0.499241572585   
Al   0.749410314894   -0.000800742341727   0.74938993174   
Al   0.499361078374   0.249108381631   0.749327610556   
Al   0.499040020899   0.499571769175   -0.00110518811883   
Al   0.748877753869   0.749535817719   -0.000108731904422   
Al   0.749541637839   0.498937322822   0.249229243344   
Al   0.499515487736   0.748915113415   0.249761114058   
Al   0.498683232704   0.499545656503   0.499419744814   
Al   0.749673201182   0.749312233164   0.499044203844   
Al   0.749231206777   0.499357178194   0.749619775747   
K_POINTS automatic
3 3 3 1 1 1 
CELL_PARAMETERS alat
1.0 0.0 0.0 
0.0 1.0 0.0 
0.0 0.0 1.0