! Edited 0:44   19/7/2021
&CONTROL 
calculation = "scf", 
disk_io = 'low', 
etot_conv_thr = 1.0E-4, 
forc_conv_thr = 1.0D-3, 
nstep = 40, 
outdir = "/scratch", 
prefix = "RlLckEmHImHvsLsA", 
pseudo_dir = "/opt/pp", 
restart_mode = 'from_scratch', 
tprnfor = .true., 
tstress = .true., 
/ 
&SYSTEM 
celldm(1) = 15.2741088, 
degauss = 0.02, 
ecutrho = 200, 
ecutwfc = 50, 
ibrav = 0, 
nat = 32, 
nspin = 1, 
ntyp = 1, 
occupations = 'smearing', 
smearing = 'mv', 
starting_magnetization(1) = 0, 
/ 
&ELECTRONS 
conv_thr = 1.0D-6, 
diagonalization = 'david', 
mixing_beta = 1.0000000E-01, 
mixing_mode = 'TF', 
mixing_ndim = 10, 
/ 
&IONS 
ion_dynamics = 'bfgs', 
/ 
&CELL 
cell_dynamics = 'bfgs', 
cell_factor = 2.0, 
press = 0.0, 
/ 
ATOMIC_SPECIES 
Al 26.982 Al.pbe-nl-kjpaw_psl.1.0.0.UPF 
ATOMIC_POSITIONS crystal
Al   -0.00864054992628   -0.00762826660059   -0.00622391544279   
Al   0.244053576485   0.237584904662   -0.00616905869908   
Al   0.239915212386   -0.00712472944265   0.249233974702   
Al   -0.00833641757548   0.247391534879   0.246551288749   
Al   -0.00171828655662   -0.00180670862814   0.489287773127   
Al   0.245009182008   0.238126294331   0.492229616432   
Al   0.242810311359   -0.0041639503379   0.739456789578   
Al   -0.00653863755702   0.244870277196   0.747185339824   
Al   -0.0021584965274   0.494730142717   -0.00822685459281   
Al   0.245493365436   0.746371825147   0.00187044379319   
Al   0.246680934259   0.494755410934   0.24816761561   
Al   -0.0069365261778   0.743236415926   0.242751507865   
Al   -0.00521327620546   0.495890806202   0.494519376156   
Al   0.241280568409   0.743661141531   0.489039556436   
Al   0.25021967381   0.487089286034   0.734849431158   
Al   -0.0157269693728   0.735077293207   0.741979142935   
Al   0.497031087375   -0.010265731045   -0.00878573771831   
Al   0.740040166684   0.244400920484   -0.0134510760568   
Al   0.733394587341   -0.0101574536887   0.243994217484   
Al   0.491547260197   0.24121652225   0.238105444701   
Al   0.490250915394   -0.000827624030043   0.491485672509   
Al   0.743783935597   0.234844959456   0.490998456772   
Al   0.743001207676   -0.00950376615656   0.742759286248   
Al   0.492416834471   0.239417654042   0.742019615162   
Al   0.488606301412   0.494917459205   -0.01311714005   
Al   0.736680403621   0.744490762351   -0.0012905057464   
Al   0.744559839585   0.48738740932   0.240852124788   
Al   0.494249471995   0.737123812654   0.247164735751   
Al   0.484371691357   0.49460753588   0.493113128519   
Al   0.746121324692   0.741837105603   0.488655947508   
Al   0.740875428172   0.492370544428   0.745487234527   
Al   0.492484216107   0.740911106417   0.740168982186   
K_POINTS automatic
3 3 3 1 1 1 
CELL_PARAMETERS alat
1.0 0.0 0.0 
0.0 1.0 0.0 
0.0 0.0 1.0