! Edited 0:44   19/7/2021
&CONTROL 
calculation = "scf", 
disk_io = 'low', 
etot_conv_thr = 1.0E-4, 
forc_conv_thr = 1.0D-3, 
nstep = 40, 
outdir = "/scratch", 
prefix = "mchOsKZIgoSmioml", 
pseudo_dir = "/opt/pp", 
restart_mode = 'from_scratch', 
tprnfor = .true., 
tstress = .true., 
/ 
&SYSTEM 
celldm(1) = 15.27601294, 
degauss = 0.02, 
ecutrho = 200, 
ecutwfc = 50, 
ibrav = 0, 
nat = 32, 
nspin = 1, 
ntyp = 1, 
occupations = 'smearing', 
smearing = 'mv', 
starting_magnetization(1) = 0, 
/ 
&ELECTRONS 
conv_thr = 1.0D-6, 
diagonalization = 'david', 
mixing_beta = 1.0000000E-01, 
mixing_mode = 'TF', 
mixing_ndim = 10, 
/ 
&IONS 
ion_dynamics = 'bfgs', 
/ 
&CELL 
cell_dynamics = 'bfgs', 
cell_factor = 2.0, 
press = 0.0, 
/ 
ATOMIC_SPECIES 
Al 26.982 Al.pbe-nl-kjpaw_psl.1.0.0.UPF 
ATOMIC_POSITIONS crystal
Al   -0.00143991214837   -0.00127121929078   -0.00103718993964   
Al   0.24900905295   0.247931075365   -0.00102804828866   
Al   0.248319411574   -0.00118730689202   0.249872345031   
Al   -0.00138922974154   0.249565310004   0.249425286438   
Al   -0.000286345395647   -0.000301080570614   0.498214851399   
Al   0.249168300685   0.248021295729   0.4987050975   
Al   0.248801867925   -0.000693905217597   0.748243017296   
Al   -0.00108963708705   0.249145152769   0.749530948445   
Al   -0.000359704578822   0.499121799933   -0.00137097152058   
Al   0.249248987864   0.749395379566   0.000311701774036   
Al   0.24944689133   0.499126010778   0.249694640669   
Al   -0.0011559435911   0.7488728765   0.248792068564   
Al   -0.000868771062617   0.499315219735   0.499086676552   
Al   0.248546942546   0.748943655277   0.498173487107   
Al   0.250036607738   0.497848482557   0.747475219944   
Al   -0.00262083483692   0.747513192218   0.748663357121   
Al   0.499505242908   -0.00171074190529   -0.00146410709746   
Al   0.748340234695   0.249066936401   -0.00224156656557   
Al   0.747232776198   -0.00169269792868   0.248999161016   
Al   0.498591385637   0.248536269517   0.248017821224   
Al   0.498375355101   -0.000137920144587   0.498581122302   
Al   0.748964118404   0.247474474753   0.498499929801   
Al   0.748833680011   -0.00158376358691   0.748793364799   
Al   0.498736296618   0.24823649552   0.748670101652   
Al   0.498101286938   0.499153015456   -0.0021859175019   
Al   0.747780343983   0.749081908179   -0.000215057481021   
Al   0.749093419616   0.497898163578   0.248475544177   
Al   0.499041698132   0.747854236276   0.249527514861   
Al   0.497395606568   0.499101368007   0.49885233116   
Al   0.749353634694   0.748639687183   0.498109560255   
Al   0.74847942759   0.498728582572   0.749247966173   
Al   0.49874752549   0.748485373223   0.748361701269   
K_POINTS automatic
3 3 3 1 1 1 
CELL_PARAMETERS alat
1.0 0.0 0.0 
0.0 1.0 0.0 
0.0 0.0 1.0