! Edited 0:44   19/7/2021
&CONTROL 
calculation = "scf", 
disk_io = 'low', 
etot_conv_thr = 1.0E-4, 
forc_conv_thr = 1.0D-3, 
nstep = 40, 
outdir = "/scratch", 
prefix = "ApLlHtDAZiCfvjHs", 
pseudo_dir = "/opt/pp", 
restart_mode = 'from_scratch', 
tprnfor = .true., 
tstress = .true., 
/ 
&SYSTEM 
celldm(1) = 15.26728039, 
degauss = 0.02, 
ecutrho = 200, 
ecutwfc = 50, 
ibrav = 0, 
nat = 32, 
nspin = 1, 
ntyp = 1, 
occupations = 'smearing', 
smearing = 'mv', 
starting_magnetization(1) = 0, 
/ 
&ELECTRONS 
conv_thr = 1.0D-6, 
diagonalization = 'david', 
mixing_beta = 1.0000000E-01, 
mixing_mode = 'TF', 
mixing_ndim = 10, 
/ 
&IONS 
ion_dynamics = 'bfgs', 
/ 
&CELL 
cell_dynamics = 'bfgs', 
cell_factor = 2.0, 
press = 0.0, 
/ 
ATOMIC_SPECIES 
Al 26.982 Al.pbe-nl-kjpaw_psl.1.0.0.UPF 
ATOMIC_POSITIONS crystal
Al   -0.00144073574658   -0.00127194640037   -0.00103778318957   
Al   0.24900848615   0.247929891986   -0.00102863630977   
Al   0.248318450314   -0.00118798600556   0.249872272015   
Al   -0.00139002435052   0.24956506137   0.249424957714   
Al   -0.000286509178942   -0.000301252782106   0.498213830333   
Al   0.249167824971   0.248020163954   0.498704356845   
Al   0.248801182619   -0.000694302116184   0.748242012341   
Al   -0.00109026033559   0.249144663815   0.749530680158   
Al   -0.000359910321963   0.499121297622   -0.00137175568626   
Al   0.249248558301   0.749395033736   0.000311880060623   
Al   0.249446574964   0.499125510875   0.24969446601   
Al   -0.00115660476552   0.74887223181   0.248791377653   
Al   -0.000869267980637   0.499314828056   0.499086154151   
Al   0.248546111429   0.748943051071   0.498172442382   
Al   0.250036628677   0.497847251936   0.747473775825   
Al   -0.00262233389704   0.747511769818   0.748662592591   
Al   0.499504959918   -0.00171172041219   -0.00146494453465   
Al   0.748339285345   0.249066402709   -0.00224284869255   
Al   0.747231193407   -0.00169366611482   0.248998588558   
Al   0.498590579941   0.248535432295   0.248016687462   
Al   0.49837442584   -0.000137999031889   0.498580310735   
Al   0.748963525902   0.247473030208   0.498499071794   
Al   0.748833012902   -0.00158466946499   0.74879267463   
Al   0.498735573807   0.248235486834   0.748669340979   
Al   0.498100200915   0.499152531   -0.00218716779883   
Al   0.747779074388   0.74908138305   -0.00021518048919   
Al   0.749092901072   0.497896961373   0.248474672222   
Al   0.499041150004   0.747853008947   0.24952724461   
Al   0.497394116912   0.49910085401   0.498851674719   
Al   0.749353264987   0.748638909114   0.498108478965   
Al   0.748478557856   0.498727855349   0.749247536026   
Al   0.498746809102   0.74848450689   0.748360764198   
K_POINTS automatic
3 3 3 1 1 1 
CELL_PARAMETERS alat
1.0 0.0 0.0 
0.0 1.0 0.0 
0.0 0.0 1.0