! Edited 0:44   19/7/2021
&CONTROL 
calculation = "scf", 
disk_io = 'low', 
etot_conv_thr = 1.0E-4, 
forc_conv_thr = 1.0D-3, 
nstep = 40, 
outdir = "/scratch", 
prefix = "gMuCueIhyhQXarqj", 
pseudo_dir = "/opt/pp", 
restart_mode = 'from_scratch', 
tprnfor = .true., 
tstress = .true., 
/ 
&SYSTEM 
celldm(1) = 15.28152738, 
degauss = 0.02, 
ecutrho = 200, 
ecutwfc = 50, 
ibrav = 0, 
nat = 32, 
nspin = 1, 
ntyp = 1, 
occupations = 'smearing', 
smearing = 'mv', 
starting_magnetization(1) = 0, 
/ 
&ELECTRONS 
conv_thr = 1.0D-6, 
diagonalization = 'david', 
mixing_beta = 1.0000000E-01, 
mixing_mode = 'TF', 
mixing_ndim = 10, 
/ 
&IONS 
ion_dynamics = 'bfgs', 
/ 
&CELL 
cell_dynamics = 'bfgs', 
cell_factor = 2.0, 
press = 0.0, 
/ 
ATOMIC_SPECIES 
Al 26.982 Al.pbe-nl-kjpaw_psl.1.0.0.UPF 
ATOMIC_POSITIONS crystal
Al   -0.00143939254657   -0.00127076056291   -0.00103681566281   
Al   0.24900941054   0.24793182195   -0.00102767731065   
Al   0.248320018025   -0.00118687844449   0.249872391096   
Al   -0.00138872842882   0.249565466864   0.249425493827   
Al   -0.000286242066022   -0.000300971923703   0.498215495582   
Al   0.249168600809   0.248022009758   0.498705564775   
Al   0.248802300278   -0.000693654817321   0.748243651315   
Al   -0.00108924388431   0.249145461246   0.749531117705   
Al   -0.000359574777051   0.499122116838   -0.00137047679646   
Al   0.249249258872   0.749395597747   0.000311589294393   
Al   0.249447090923   0.499126326163   0.24969475086   
Al   -0.00115552646123   0.74887328323   0.248792504454   
Al   -0.000868457560846   0.499315466842   0.49908700613   
Al   0.248547466892   0.748944036466   0.498174146217   
Al   0.250036594528   0.497849258946   0.747476131027   
Al   -0.00261988909137   0.747514089599   0.748663839458   
Al   0.499505421444   -0.00171012457278   -0.00146357876475   
Al   0.748340833632   0.249067273103   -0.00224075768149   
Al   0.747233774769   -0.00169208710746   0.248999522176   
Al   0.498591893945   0.248536797714   0.248018536507   
Al   0.498375941365   -0.000137870375193   0.498581634313   
Al   0.748964492209   0.247475386105   0.498500471111   
Al   0.748834100886   -0.00158319207537   0.748793800222   
Al   0.498736752633   0.248237131892   0.748670581554   
Al   0.498101972101   0.499153321096   -0.00218512869914   
Al   0.74778114496   0.749082239478   -0.00021497987611   
Al   0.749093746762   0.497898922039   0.248476094287   
Al   0.499042043942   0.747855010589   0.24952768536   
Al   0.497396546381   0.499101692285   0.498852745304   
Al   0.749353867939   0.748640178061   0.498110242433   
Al   0.748479976299   0.498729041371   0.74924823755   
Al   0.498747977454   0.748485919786   0.74836229246   
K_POINTS automatic
3 3 3 1 1 1 
CELL_PARAMETERS alat
1.0 0.0 0.0 
0.0 1.0 0.0 
0.0 0.0 1.0