! Edited 0:44   19/7/2021
&CONTROL 
calculation = "scf", 
disk_io = 'low', 
etot_conv_thr = 1.0E-4, 
forc_conv_thr = 1.0D-3, 
nstep = 40, 
outdir = "/scratch", 
prefix = "CVgWGJoyuiacBmnv", 
pseudo_dir = "/opt/pp", 
restart_mode = 'from_scratch', 
tprnfor = .true., 
tstress = .true., 
/ 
&SYSTEM 
celldm(1) = 15.2890603, 
degauss = 0.02, 
ecutrho = 200, 
ecutwfc = 50, 
ibrav = 0, 
nat = 32, 
nspin = 1, 
ntyp = 1, 
occupations = 'smearing', 
smearing = 'mv', 
starting_magnetization(1) = 0, 
/ 
&ELECTRONS 
conv_thr = 1.0D-6, 
diagonalization = 'david', 
mixing_beta = 1.0000000E-01, 
mixing_mode = 'TF', 
mixing_ndim = 10, 
/ 
&IONS 
ion_dynamics = 'bfgs', 
/ 
&CELL 
cell_dynamics = 'bfgs', 
cell_factor = 2.0, 
press = 0.0, 
/ 
ATOMIC_SPECIES 
Al 26.982 Al.pbe-nl-kjpaw_psl.1.0.0.UPF 
ATOMIC_POSITIONS crystal
Al   -0.00143868335786   -0.00127013445918   -0.00103630482373   
Al   0.249009898603   0.247932840942   -0.00102717097404   
Al   0.248320845753   -0.00118629366949   0.249872453969   
Al   -0.00138804420232   0.249565680959   0.249425776886   
Al   -0.000286101034556   -0.000300823634836   0.498216374807   
Al   0.249169010439   0.248022984314   0.498706202543   
Al   0.248802890385   -0.000693313053592   0.748244516668   
Al   -0.00108870721385   0.249145882277   0.749531348723   
Al   -0.000359397614559   0.499122549371   -0.00136980156254   
Al   0.249249628762   0.749395895536   0.000311435774348   
Al   0.249447363341   0.499126756622   0.249694901256   
Al   -0.00115495713334   0.748873838363   0.248793099387   
Al   -0.000868029671807   0.499315804112   0.499087455963   
Al   0.248548182555   0.748944556739   0.498175045815   
Al   0.250036576498   0.497850318616   0.747477374537   
Al   -0.00261859827202   0.747515314407   0.748664497784   
Al   0.499505665123   -0.0017092819944   -0.00146285765949   
Al   0.748341651103   0.249067732657   -0.00223965366018   
Al   0.747235137688   -0.00169125341614   0.249000015111   
Al   0.498592587719   0.248537518634   0.248019512774   
Al   0.498376741539   -0.000137802446459   0.498582333142   
Al   0.748965002403   0.247476629983   0.498501209929   
Al   0.748834675324   -0.00158241203663   0.748794394516   
Al   0.498737375035   0.248238000458   0.748671236559   
Al   0.498102907259   0.499153738255   -0.00218405208623   
Al   0.74778223819   0.749082691659   -0.000214873955525   
Al   0.749094193273   0.49789995724   0.248476845115   
Al   0.499042515927   0.747856067426   0.24952791807   
Al   0.497397829103   0.499102134881   0.498853310556   
Al   0.749354186289   0.748640848045   0.498111173517   
Al   0.748480725214   0.498729667573   0.749248607943   
Al   0.498748594326   0.748486665773   0.748363099358   
K_POINTS automatic
3 3 3 1 1 1 
CELL_PARAMETERS alat
1.0 0.0 0.0 
0.0 1.0 0.0 
0.0 0.0 1.0