! Edited 0:44   19/7/2021
&CONTROL 
calculation = "scf", 
disk_io = 'low', 
etot_conv_thr = 1.0E-4, 
forc_conv_thr = 1.0D-3, 
nstep = 40, 
outdir = "/scratch", 
prefix = "sMzFFNiHoTSgGHtw", 
pseudo_dir = "/opt/pp", 
restart_mode = 'from_scratch', 
tprnfor = .true., 
tstress = .true., 
/ 
&SYSTEM 
celldm(1) = 15.2741088, 
degauss = 0.02, 
ecutrho = 200, 
ecutwfc = 50, 
ibrav = 0, 
nat = 32, 
nspin = 1, 
ntyp = 1, 
occupations = 'smearing', 
smearing = 'mv', 
starting_magnetization(1) = 0, 
/ 
&ELECTRONS 
conv_thr = 1.0D-6, 
diagonalization = 'david', 
mixing_beta = 1.0000000E-01, 
mixing_mode = 'TF', 
mixing_ndim = 10, 
/ 
&IONS 
ion_dynamics = 'bfgs', 
/ 
&CELL 
cell_dynamics = 'bfgs', 
cell_factor = 2.0, 
press = 0.0, 
/ 
ATOMIC_SPECIES 
Al 26.982 Al.pbe-nl-kjpaw_psl.1.0.0.UPF 
ATOMIC_POSITIONS crystal
Al   -0.0072004582719   -0.00635688883383   -0.00518659620233   
Al   0.24504464707   0.239654087218   -0.00514088224923   
Al   0.241596010321   -0.00593727453554   0.249361645585   
Al   -0.00694701464623   0.247826279066   0.247126073957   
Al   -0.00143190546385   -0.00150559052345   0.491073144272   
Al   0.245840985007   0.240105245276   0.49352468036   
Al   0.244008592799   -0.00346995861492   0.741213991315   
Al   -0.00544886463085   0.245725230997   0.747654449853   
Al   -0.00179874710617   0.495608452265   -0.00685571216067   
Al   0.246244471197   0.746976520956   0.00155870316099   
Al   0.247234111883   0.495629509112   0.248473013008   
Al   -0.0057804384815   0.744363679938   0.243959589887   
Al   -0.00434439683788   0.496575671835   0.495432813463   
Al   0.242733807008   0.744717617942   0.49086629703   
Al   0.250183061508   0.489241071695   0.737374525965   
Al   -0.0131058078106   0.737564411006   0.743315952446   
Al   0.497525906146   -0.00855477587084   -0.00732144809859   
Al   0.741700138903   0.245334100403   -0.0112092300474   
Al   0.736162156118   -0.00846454474057   0.244995181236   
Al   0.492956050164   0.242680435208   0.240087870585   
Al   0.491875762828   -0.000689686691703   0.492904727091   
Al   0.744819946331   0.237370799547   0.492498713977   
Al   0.744167673063   -0.00791980513047   0.743966071873   
Al   0.493680695393   0.241181378368   0.743349679302   
Al   0.490505251176   0.495764549337   -0.0109309500417   
Al   0.738900336351   0.745408968626   -0.00107542145533   
Al   0.745466532988   0.489489507766   0.242376770657   
Al   0.495207893329   0.739269843879   0.247637279793   
Al   0.486976409464   0.4955062799   0.494260940432   
Al   0.746767770577   0.743197588002   0.490546622923   
Al   0.742396190143   0.493642120357   0.746239362106   
Al   0.493736846756   0.742425922014   0.741807485155   
K_POINTS automatic
3 3 3 1 1 1 
CELL_PARAMETERS alat
1.0 0.0 0.0 
0.0 1.0 0.0 
0.0 0.0 1.0