! Edited 0:44   19/7/2021
&CONTROL 
calculation = "scf", 
disk_io = 'low', 
etot_conv_thr = 1.0E-4, 
forc_conv_thr = 1.0D-3, 
nstep = 40, 
outdir = "/scratch", 
prefix = "RlLckEmHImHvsLsA", 
pseudo_dir = "/opt/pp", 
restart_mode = 'from_scratch', 
tprnfor = .true., 
tstress = .true., 
/ 
&SYSTEM 
celldm(1) = 15.27580845, 
degauss = 0.02, 
ecutrho = 200, 
ecutwfc = 50, 
ibrav = 0, 
nat = 32, 
nspin = 1, 
ntyp = 1, 
occupations = 'smearing', 
smearing = 'mv', 
starting_magnetization(1) = 0, 
/ 
&ELECTRONS 
conv_thr = 1.0D-6, 
diagonalization = 'david', 
mixing_beta = 1.0000000E-01, 
mixing_mode = 'TF', 
mixing_ndim = 10, 
/ 
&IONS 
ion_dynamics = 'bfgs', 
/ 
&CELL 
cell_dynamics = 'bfgs', 
cell_factor = 2.0, 
press = 0.0, 
/ 
ATOMIC_SPECIES 
Al 26.982 Al.pbe-nl-kjpaw_psl.1.0.0.UPF 
ATOMIC_POSITIONS crystal
Al   -0.0100795199665   -0.0088986541559   -0.00726042676808   
Al   0.243063277793   0.235517333686   -0.0071964343546   
Al   0.238235723538   -0.00831125950155   0.249106403256   
Al   -0.00972473836947   0.246957129292   0.245976951211   
Al   -0.00200444460172   -0.00210759220726   0.487503792516   
Al   0.244178026858   0.236148884691   0.490935561163   
Al   0.2416129632   -0.00485740154604   0.737700956436   
Al   -0.00762756171451   0.244015989276   0.74671659516   
Al   -0.00251796575812   0.493852517241   -0.00959692911186   
Al   0.244742844673   0.745767600305   0.00218194162648   
Al   0.246128187478   0.493881993547   0.24786245607   
Al   -0.00809171345621   0.742110029882   0.241544366756   
Al   -0.0060814788471   0.495206473976   0.493606650278   
Al   0.239828461665   0.742605487955   0.487214238597   
Al   0.250256257596   0.48493917629   0.732326303018   
Al   -0.0183460894455   0.732592112498   0.740643374597   
Al   0.496536653993   -0.0119753536432   -0.0102488868773   
Al   0.738381487332   0.243468467371   -0.0156911760065   
Al   0.730629174083   -0.0118490441161   0.242994033331   
Al   0.490139567465   0.239753749459   0.236124562829   
Al   0.48862733347   -0.000965453936009   0.490067723156   
Al   0.742748731759   0.232321086614   0.489499368041   
Al   0.741835650789   -0.011086493516   0.741553440526   
Al   0.491153957907   0.237655303391   0.740690586942   
Al   0.486708830642   0.494071028828   -0.0153016273462   
Al   0.734462199884   0.74357327122   -0.00150542251926   
Al   0.74365385236   0.485286948091   0.239328666388   
Al   0.493291797127   0.734979452865   0.24669255975   
Al   0.481769001932   0.493709491846   0.491966210577   
Al   0.745475382292   0.740477682813   0.486766744644   
Al   0.739355850645   0.491099958865   0.744735692743   
Al   0.491232561069   0.739397470632   0.738531755364   
K_POINTS automatic
3 3 3 1 1 1 
CELL_PARAMETERS alat
1.0 0.0 0.0 
0.0 1.0 0.0 
0.0 0.0 1.0