! Edited 0:44   19/7/2021
&CONTROL 
calculation = "scf", 
disk_io = 'low', 
etot_conv_thr = 1.0E-4, 
forc_conv_thr = 1.0D-3, 
nstep = 40, 
outdir = "/scratch", 
prefix = "gMuCueIhyhQXarqj", 
pseudo_dir = "/opt/pp", 
restart_mode = 'from_scratch', 
tprnfor = .true., 
tstress = .true., 
/ 
&SYSTEM 
celldm(1) = 15.28152738, 
degauss = 0.02, 
ecutrho = 200, 
ecutwfc = 50, 
ibrav = 0, 
nat = 32, 
nspin = 1, 
ntyp = 1, 
occupations = 'smearing', 
smearing = 'mv', 
starting_magnetization(1) = 0, 
/ 
&ELECTRONS 
conv_thr = 1.0D-6, 
diagonalization = 'david', 
mixing_beta = 1.0000000E-01, 
mixing_mode = 'TF', 
mixing_ndim = 10, 
/ 
&IONS 
ion_dynamics = 'bfgs', 
/ 
&CELL 
cell_dynamics = 'bfgs', 
cell_factor = 2.0, 
press = 0.0, 
/ 
ATOMIC_SPECIES 
Al 26.982 Al.pbe-nl-kjpaw_psl.1.0.0.UPF 
ATOMIC_POSITIONS crystal
Al   -0.010075747826   -0.00889532394034   -0.00725770963965   
Al   0.243065873779   0.235522753652   -0.00719374117458   
Al   0.238240126178   -0.00830814911146   0.249106737674   
Al   -0.00972109900172   0.24695826805   0.245978456789   
Al   -0.00200369446215   -0.00210680346592   0.487508469073   
Al   0.244180205663   0.236154068306   0.490938953422   
Al   0.241616101949   -0.00485558372124   0.737705559207   
Al   -0.00762470719019   0.244018228721   0.746717823936   
Al   -0.00251702343936   0.493854817863   -0.0095933375752   
Al   0.244744812101   0.74576918423   0.00218112506075   
Al   0.246129636458   0.493884283138   0.24786325602   
Al   -0.00808868522862   0.74211298261   0.241547531176   
Al   -0.00607920292592   0.495208267897   0.493609042913   
Al   0.239832268242   0.742608255263   0.487219023516   
Al   0.250256161694   0.484944812624   0.732332917189   
Al   -0.0183392236396   0.732598627193   0.740646876203   
Al   0.496537950109   -0.0119708720095   -0.0102450513532   
Al   0.738385835423   0.243470911719   -0.0156853037704   
Al   0.730636423385   -0.0118446097522   0.24299665523   
Al   0.490143257614   0.239757583997   0.236129755546   
Al   0.488631589555   -0.000965092626348   0.490071440193   
Al   0.74275144546   0.232327702737   0.489503297778   
Al   0.741838706199   -0.0110823445276   0.741556601551   
Al   0.491157268433   0.237659923247   0.740694070879   
Al   0.486713804705   0.494073247675   -0.015295900894   
Al   0.734468014721   0.743575676347   -0.00150485913277   
Al   0.743656227331   0.485292454275   0.239332660008   
Al   0.493294307592   0.734985074126   0.246693797521   
Al   0.481775824667   0.493711845993   0.491969217128   
Al   0.745477075576   0.740481246427   0.486771697032   
Al   0.739359834091   0.4911032896   0.744737662847   
Al   0.491235842179   0.739401438503   0.738536047218   
K_POINTS automatic
3 3 3 1 1 1 
CELL_PARAMETERS alat
1.0 0.0 0.0 
0.0 1.0 0.0 
0.0 0.0 1.0