! Edited 0:44   19/7/2021
&CONTROL 
calculation = "scf", 
disk_io = 'low', 
etot_conv_thr = 1.0E-4, 
forc_conv_thr = 1.0D-3, 
nstep = 40, 
outdir = "/scratch", 
prefix = "ApLlHtDAZiCfvjHs", 
pseudo_dir = "/opt/pp", 
restart_mode = 'from_scratch', 
tprnfor = .true., 
tstress = .true., 
/ 
&SYSTEM 
celldm(1) = 15.26728039, 
degauss = 0.02, 
ecutrho = 200, 
ecutwfc = 50, 
ibrav = 0, 
nat = 32, 
nspin = 1, 
ntyp = 1, 
occupations = 'smearing', 
smearing = 'mv', 
starting_magnetization(1) = 0, 
/ 
&ELECTRONS 
conv_thr = 1.0D-6, 
diagonalization = 'david', 
mixing_beta = 1.0000000E-01, 
mixing_mode = 'TF', 
mixing_ndim = 10, 
/ 
&IONS 
ion_dynamics = 'bfgs', 
/ 
&CELL 
cell_dynamics = 'bfgs', 
cell_factor = 2.0, 
press = 0.0, 
/ 
ATOMIC_SPECIES 
Al 26.982 Al.pbe-nl-kjpaw_psl.1.0.0.UPF 
ATOMIC_POSITIONS crystal
Al   -0.0100851502261   -0.00890362480258   -0.00726448232699   
Al   0.24305940305   0.235509243899   -0.00720045416837   
Al   0.2382291522   -0.00831590203891   0.249105904107   
Al   -0.00973017045365   0.246955429593   0.245974704   
Al   -0.0020055642526   -0.00210876947474   0.487496812333   
Al   0.244174774797   0.236141147678   0.490930497912   
Al   0.241608278334   -0.00486011481329   0.737694086386   
Al   -0.00763182234916   0.244012646702   0.746714761103   
Al   -0.00251937225374   0.493849083355   -0.00960228980382   
Al   0.24473990811   0.745765236154   0.00218316042436   
Al   0.246126024745   0.493878576126   0.247861262072   
Al   -0.00809623335865   0.74210562267   0.241539643573   
Al   -0.00608487586446   0.495203796389   0.493603079055   
Al   0.239822780005   0.742601357498   0.487207096674   
Al   0.250256400737   0.484930763553   0.732316430772   
Al   -0.0183563372793   0.732582388728   0.740638148135   
Al   0.496534719423   -0.0119820428853   -0.0102546117425   
Al   0.738374997416   0.243464818961   -0.0156999408479   
Al   0.730618353848   -0.0118556628037   0.242990119909   
Al   0.490134059584   0.239748026067   0.236116812231   
Al   0.488620980879   -0.000965993223222   0.490062175144   
Al   0.742744681316   0.232311211454   0.489493502555   
Al   0.741831090313   -0.0110926862549   0.741548722413   
Al   0.491149016648   0.23764840784   0.740685386852   
Al   0.486701406407   0.494067716999   -0.0153101745918   
Al   0.734453520716   0.743569681352   -0.00150626342433   
Al   0.743650307503   0.485278729614   0.239322705551   
Al   0.493288050031   0.734971062626   0.246690712267   
Al   0.481758818387   0.493705978068   0.49196172303   
Al   0.745472854912   0.740472363799   0.486759352758   
Al   0.739349904992   0.491094987444   0.744732752184   
Al   0.491227663717   0.739391548228   0.738525349385   
K_POINTS automatic
3 3 3 1 1 1 
CELL_PARAMETERS alat
1.0 0.0 0.0 
0.0 1.0 0.0 
0.0 0.0 1.0