! Edited 2:17   21/7/2020
&CONTROL 
calculation = "scf", 
disk_io = 'low', 
etot_conv_thr = 1.0E-4, 
forc_conv_thr = 1.0D-3, 
nstep = 40, 
outdir = "/scratch", 
prefix = "CTXfrgOdtTXDcHqQ", 
pseudo_dir = "/opt/pp", 
restart_mode = 'from_scratch', 
tprnfor = .true., 
tstress = .true., 
/ 
&SYSTEM 
celldm(1) = 13.00682857, 
degauss = 0.04, 
ecutrho = 430, 
ecutwfc = 71, 
ibrav = 0, 
nat = 32, 
nspin = 2, 
ntyp = 5, 
occupations = 'smearing', 
smearing = 'mv', 
starting_magnetization(1) = -0.0797, 
starting_magnetization(2) = 1.7, 
starting_magnetization(3) = -1.7, 
starting_magnetization(4) = 1.7, 
starting_magnetization(5) = -1.7, 
/ 
&ELECTRONS 
conv_thr = 1.0D-6, 
diagonalization = 'david', 
mixing_beta = 1.0000000E-01, 
mixing_mode = 'plain', 
mixing_ndim = 10, 
/ 
&IONS 
ion_dynamics = 'bfgs', 
/ 
&CELL 
cell_dynamics = 'bfgs', 
cell_factor = 2.0, 
press = 0.0, 
/ 
ATOMIC_SPECIES 
Pd 106.42 Pd.pbe-spn-kjpaw_psl.1.0.0.UPF 
Fe1 55.845 Fe.pbe-spn-kjpaw_psl.1.0.0.UPF 
Fe2 55.845 Fe.pbe-spn-kjpaw_psl.1.0.0.UPF 
Fe3 55.845 Fe.pbe-spn-kjpaw_psl.1.0.0.UPF 
Fe4 55.845 Fe.pbe-spn-kjpaw_psl.1.0.0.UPF 
ATOMIC_POSITIONS crystal
Pd   -0.000845560333658   -0.000708166105381   -0.00060907388173   
Fe2   0.254602399666   0.253939617174   -0.000603705587425   
Fe3   0.256072614215   -0.000661420498977   0.256976831578   
Fe4   -0.000815798078453   0.254840643517   0.254840498277   
Fe1   -0.000168150750418   -0.000167724842318   0.498951698868   
Fe2   0.249987717794   0.249662293799   0.499239588371   
Fe3   0.2563559273   -0.000386558132822   0.741915442859   
Fe4   -0.000639868133575   0.25460658389   0.744545564669   
Fe1   -0.000211229500377   0.499510870579   -0.00080508199498   
Fe2   0.254743296766   0.744571299302   0.000183042085348   
Fe3   0.250474811718   0.499513216341   0.250620185417   
Fe4   -0.000678805335236   0.744289592241   0.254468650793   
Fe1   -0.000510168867185   0.499618620162   0.499463664815   
Fe2   0.249622837342   0.748647237418   0.498927408322   
Fe3   0.25082111118   0.49880153568   0.747717858642   
Fe4   -0.00153903415682   0.743532144388   0.744036084973   
Fe1   0.499709263544   -0.000953013725617   -0.000859774433818   
Fe2   0.743840520187   0.254572378407   -0.00131632558037   
Fe3   0.741315094778   -0.000942961854367   0.25646406766   
Fe4   0.499172618681   0.249956164477   0.24930367792   
Fe1   0.499045758961   -7.68320401951e-05   0.499166785837   
Fe2   0.74891508073   0.249357672807   0.499119106786   
Fe3   0.742255194328   -0.000882277117192   0.742238625988   
Fe4   0.499257714828   0.249789167496   0.748750354595   
Fe1   0.498884817775   0.499528260007   -0.00128364652137   
Fe2   0.743511735283   0.744396671829   -0.000126289206783   
Fe3   0.748667613346   0.498829211798   0.249904289703   
Fe4   0.499437055913   0.748033356941   0.25019022235   
Fe1   0.498470420738   0.499499488438   0.499326049079   
Fe2   0.749143816577   0.748477904005   0.498889868259   
Fe3   0.748307058501   0.499291818517   0.748758876671   
Fe4   0.499264308765   0.748384948359   0.748569251201   
K_POINTS automatic
9 9 9 1 1 1  
CELL_PARAMETERS alat
1.0 0.0 0.0 
0.0 1.054129443 0.0 
0.0 0.0 0.999992919