! Edited 2:17   21/7/2020
&CONTROL 
calculation = "scf", 
disk_io = 'low', 
etot_conv_thr = 1.0E-4, 
forc_conv_thr = 1.0D-3, 
nstep = 40, 
outdir = "/scratch", 
prefix = "ZjxegaoGjeaDBVpJ", 
pseudo_dir = "/opt/pp", 
restart_mode = 'from_scratch', 
tprnfor = .true., 
tstress = .true., 
/ 
&SYSTEM 
celldm(1) = 13.00471232, 
degauss = 0.04, 
ecutrho = 430, 
ecutwfc = 71, 
ibrav = 0, 
nat = 32, 
nspin = 2, 
ntyp = 5, 
occupations = 'smearing', 
smearing = 'mv', 
starting_magnetization(1) = -0.0797, 
starting_magnetization(2) = 1.7, 
starting_magnetization(3) = -1.7, 
starting_magnetization(4) = 1.7, 
starting_magnetization(5) = -1.7, 
/ 
&ELECTRONS 
conv_thr = 1.0D-6, 
diagonalization = 'david', 
mixing_beta = 1.0000000E-01, 
mixing_mode = 'plain', 
mixing_ndim = 10, 
/ 
&IONS 
ion_dynamics = 'bfgs', 
/ 
&CELL 
cell_dynamics = 'bfgs', 
cell_factor = 2.0, 
press = 0.0, 
/ 
ATOMIC_SPECIES 
Pd 106.42 Pd.pbe-spn-kjpaw_psl.1.0.0.UPF 
Fe1 55.845 Fe.pbe-spn-kjpaw_psl.1.0.0.UPF 
Fe2 55.845 Fe.pbe-spn-kjpaw_psl.1.0.0.UPF 
Fe3 55.845 Fe.pbe-spn-kjpaw_psl.1.0.0.UPF 
Fe4 55.845 Fe.pbe-spn-kjpaw_psl.1.0.0.UPF 
ATOMIC_POSITIONS crystal
Pd   -0.000845697931247   -0.000708281344879   -0.000609172996003   
Fe2   0.254602304972   0.253939429621   -0.000603803828117   
Fe3   0.256072453619   -0.000661528131588   0.256976819379   
Fe4   -0.000815930832845   0.254840604111   0.254840443357   
Fe1   -0.000168178113502   -0.000167752136094   0.498951528279   
Fe2   0.249987638317   0.249662114424   0.499239464629   
Fe3   0.256355812807   -0.000386621037224   0.741915274961   
Fe4   -0.00063997225898   0.254606506396   0.744545519847   
Fe1   -0.000211263873643   0.499510790968   -0.00080521300555   
Fe2   0.254743225   0.744571244491   0.00018307187169   
Fe3   0.250474758863   0.499513137111   0.250620156237   
Fe4   -0.000678915796871   0.744289490064   0.254468535363   
Fe1   -0.000510251886696   0.499618558085   0.499463577538   
Fe2   0.249622698488   0.748647141658   0.49892723378   
Fe3   0.250821114679   0.498801340639   0.747717617373   
Fe4   -0.00153928460304   0.743531918952   0.744035957243   
Fe1   0.499709216266   -0.00095316880904   -0.00085991434446   
Fe2   0.74384036158   0.254572293822   -0.00131653978534   
Fe3   0.741314830343   -0.000943115302054   0.256463972019   
Fe4   0.499172484074   0.249956031786   0.249303488503   
Fe1   0.49904560371   -7.68445430326e-05   0.499166650249   
Fe2   0.748914981742   0.249357443861   0.499118963439   
Fe3   0.742255082874   -0.000882420689684   0.742238510681   
Fe4   0.499257594069   0.249789007629   0.74875022751   
Fe1   0.498884636335   0.499528183225   -0.0012838554085   
Fe2   0.743511523173   0.744396588602   -0.000126309757759   
Fe3   0.748667526713   0.498829021261   0.249904144025   
Fe4   0.499436964338   0.748033162422   0.250190177199   
Fe1   0.498470171863   0.499499406975   0.499325939407   
Fe2   0.749143754811   0.748477780689   0.498889687608   
Fe3   0.748306913195   0.49929170326   0.748758804807   
Fe4   0.499264189079   0.748384811054   0.748569094645   
K_POINTS automatic
9 9 9 1 1 1  
CELL_PARAMETERS alat
1.0 0.0 0.0 
0.0 1.054129443 0.0 
0.0 0.0 0.999992919