! Edited 2:17   21/7/2020
&CONTROL 
calculation = "scf", 
disk_io = 'low', 
etot_conv_thr = 1.0E-4, 
forc_conv_thr = 1.0D-3, 
nstep = 40, 
outdir = "/scratch", 
prefix = "MECEqXlwHvEdTQpA", 
pseudo_dir = "/opt/pp", 
restart_mode = 'from_scratch', 
tprnfor = .true., 
tstress = .true., 
/ 
&SYSTEM 
celldm(1) = 13.02516679, 
degauss = 0.04, 
ecutrho = 430, 
ecutwfc = 71, 
ibrav = 0, 
nat = 32, 
nspin = 2, 
ntyp = 5, 
occupations = 'smearing', 
smearing = 'mv', 
starting_magnetization(1) = -0.0797, 
starting_magnetization(2) = 1.7, 
starting_magnetization(3) = -1.7, 
starting_magnetization(4) = 1.7, 
starting_magnetization(5) = -1.7, 
/ 
&ELECTRONS 
conv_thr = 1.0D-6, 
diagonalization = 'david', 
mixing_beta = 1.0000000E-01, 
mixing_mode = 'plain', 
mixing_ndim = 10, 
/ 
&IONS 
ion_dynamics = 'bfgs', 
/ 
&CELL 
cell_dynamics = 'bfgs', 
cell_factor = 2.0, 
press = 0.0, 
/ 
ATOMIC_SPECIES 
Pd 106.42 Pd.pbe-spn-kjpaw_psl.1.0.0.UPF 
Fe1 55.845 Fe.pbe-spn-kjpaw_psl.1.0.0.UPF 
Fe2 55.845 Fe.pbe-spn-kjpaw_psl.1.0.0.UPF 
Fe3 55.845 Fe.pbe-spn-kjpaw_psl.1.0.0.UPF 
Fe4 55.845 Fe.pbe-spn-kjpaw_psl.1.0.0.UPF 
ATOMIC_POSITIONS crystal
Pd   -0.000844369863573   -0.000707169073555   -0.000608216362512   
Fe2   0.254603218948   0.253941239855   -0.000602855626264   
Fe3   0.256074003668   -0.000660489280605   0.256976937119   
Fe4   -0.000814649510847   0.254840984449   0.254840973434   
Fe1   -0.000167914009845   -0.000167488701384   0.498953174778   
Fe2   0.249988405414   0.249663845719   0.499240658959   
Fe3   0.256356917874   -0.000386013895025   0.741916895483   
Fe4   -0.000638967258922   0.254607254356   0.744545952468   
Fe1   -0.000210932108942   0.499511559362   -0.00080394851462   
Fe2   0.254743917677   0.744571773512   0.000182784379164   
Fe3   0.250475269009   0.499513901821   0.25062043788   
Fe4   -0.000677849640635   0.744290476257   0.254469649477   
Fe1   -0.000509450597002   0.499619157243   0.499464419925   
Fe2   0.24962403868   0.748648065921   0.498928918431   
Fe3   0.250821080914   0.49880322314   0.747719946058   
Fe4   -0.00153686734027   0.743534094819   0.744037190072   
Fe1   0.499709672593   -0.000951671971178   -0.000858563951605   
Fe2   0.743841892424   0.25457311022   -0.00131447231672   
Fe3   0.741317382624   -0.000941634252025   0.256464895125   
Fe4   0.499173783275   0.249957312498   0.249305316729   
Fe1   0.499047102161   -7.67238678485e-05   0.499167958925   
Fe2   0.748915937162   0.249359653605   0.499120347002   
Fe3   0.742256158601   -0.0008810349533   0.7422396236   
Fe4   0.499258759615   0.249790550633   0.748751454118   
Fe1   0.498886387566   0.499528924306   -0.00128183926679   
Fe2   0.743513570418   0.744397391899   -0.000126111403359   
Fe3   0.748668362876   0.498830860293   0.24990555008   
Fe4   0.499437848204   0.748035039888   0.250190612987   
Fe1   0.498472573961   0.499500193246   0.499326997939   
Fe2   0.74914435097   0.748478970914   0.498891431221   
Fe3   0.748308315658   0.499292815704   0.748759498432   
Fe4   0.499265344268   0.748386136298   0.7485706057   
K_POINTS automatic
9 9 9 1 1 1  
CELL_PARAMETERS alat
1.0 0.0 0.0 
0.0 1.054129443 0.0 
0.0 0.0 0.999992919