! Edited 2:17   21/7/2020
&CONTROL 
calculation = "scf", 
disk_io = 'low', 
etot_conv_thr = 1.0E-4, 
forc_conv_thr = 1.0D-3, 
nstep = 40, 
outdir = "/scratch", 
prefix = "iaKDJsdLizzcuvna", 
pseudo_dir = "/opt/pp", 
restart_mode = 'from_scratch', 
tprnfor = .true., 
tstress = .true., 
/ 
&SYSTEM 
celldm(1) = 13.00691771, 
degauss = 0.04, 
ecutrho = 430, 
ecutwfc = 71, 
ibrav = 0, 
nat = 32, 
nspin = 2, 
ntyp = 5, 
occupations = 'smearing', 
smearing = 'mv', 
starting_magnetization(1) = -0.0797, 
starting_magnetization(2) = 1.7, 
starting_magnetization(3) = -1.7, 
starting_magnetization(4) = 1.7, 
starting_magnetization(5) = -1.7, 
/ 
&ELECTRONS 
conv_thr = 1.0D-6, 
diagonalization = 'david', 
mixing_beta = 1.0000000E-01, 
mixing_mode = 'plain', 
mixing_ndim = 10, 
/ 
&IONS 
ion_dynamics = 'bfgs', 
/ 
&CELL 
cell_dynamics = 'bfgs', 
cell_factor = 2.0, 
press = 0.0, 
/ 
ATOMIC_SPECIES 
Pd 106.42 Pd.pbe-spn-kjpaw_psl.1.0.0.UPF 
Fe1 55.845 Fe.pbe-spn-kjpaw_psl.1.0.0.UPF 
Fe2 55.845 Fe.pbe-spn-kjpaw_psl.1.0.0.UPF 
Fe3 55.845 Fe.pbe-spn-kjpaw_psl.1.0.0.UPF 
Fe4 55.845 Fe.pbe-spn-kjpaw_psl.1.0.0.UPF 
ATOMIC_POSITIONS crystal
Pd   -0.000845554538799   -0.000708161252123   -0.000609069707578   
Fe2   0.254602403654   0.253939625073   -0.000603701450063   
Fe3   0.256072620979   -0.00066141596608   0.256976832091   
Fe4   -0.000815792487563   0.254840645176   0.25484050059   
Fe1   -0.000168149598035   -0.000167723692854   0.498951706052   
Fe2   0.249987721141   0.249662301353   0.499239593582   
Fe3   0.256355932122   -0.000386555483632   0.74191544993   
Fe4   -0.000639863748381   0.254606587153   0.744545566557   
Fe1   -0.000211228052763   0.499510873932   -0.000805076477531   
Fe2   0.254743299789   0.74457130161   0.00018304083091   
Fe3   0.250474813944   0.499513219678   0.250620186646   
Fe4   -0.000678800683195   0.744289596544   0.254468655655   
Fe1   -0.000510165370856   0.499618622776   0.499463668491   
Fe2   0.24962284319   0.748647241451   0.498927415673   
Fe3   0.250821111033   0.498801543894   0.747717868802   
Fe4   -0.0015390236094   0.743532153882   0.744036090353   
Fe1   0.499709265536   -0.000953007194351   -0.000859768541546   
Fe2   0.743840526866   0.254572381969   -0.00131631655922   
Fe3   0.741315105914   -0.000942955391989   0.256464071687   
Fe4   0.49917262435   0.249956170065   0.249303685898   
Fe1   0.499045765499   -7.68315136439e-05   0.499166791547   
Fe2   0.748915084899   0.249357682448   0.499119112823   
Fe3   0.742255199021   -0.000882271070704   0.742238630844   
Fe4   0.499257719914   0.249789174229   0.748750359947   
Fe1   0.498884825417   0.49952826324   -0.00128363772419   
Fe2   0.743511744216   0.744396675334   -0.000126288341288   
Fe3   0.748667616995   0.498829219823   0.249904295838   
Fe4   0.49943705977   0.748033365133   0.250190224251   
Fe1   0.498470431219   0.499499491869   0.499326053698   
Fe2   0.749143819178   0.748477909199   0.498889875867   
Fe3   0.74830706462   0.499291823371   0.748758879698   
Fe4   0.499264313806   0.748384954142   0.748569257795   
K_POINTS automatic
9 9 9 1 1 1  
CELL_PARAMETERS alat
1.0 0.0 0.0 
0.0 1.054129443 0.0 
0.0 0.0 0.999992919