! Edited 2:17   21/7/2020
&CONTROL 
calculation = "scf", 
disk_io = 'low', 
etot_conv_thr = 1.0E-4, 
forc_conv_thr = 1.0D-3, 
nstep = 40, 
outdir = "/scratch", 
prefix = "VjnZaKUxotwvsVHT", 
pseudo_dir = "/opt/pp", 
restart_mode = 'from_scratch', 
tprnfor = .true., 
tstress = .true., 
/ 
&SYSTEM 
celldm(1) = 13.0142072, 
degauss = 0.04, 
ecutrho = 430, 
ecutwfc = 71, 
ibrav = 0, 
nat = 32, 
nspin = 2, 
ntyp = 5, 
occupations = 'smearing', 
smearing = 'mv', 
starting_magnetization(1) = -0.0797, 
starting_magnetization(2) = 1.7, 
starting_magnetization(3) = -1.7, 
starting_magnetization(4) = 1.7, 
starting_magnetization(5) = -1.7, 
/ 
&ELECTRONS 
conv_thr = 1.0D-6, 
diagonalization = 'david', 
mixing_beta = 1.0000000E-01, 
mixing_mode = 'plain', 
mixing_ndim = 10, 
/ 
&IONS 
ion_dynamics = 'bfgs', 
/ 
&CELL 
cell_dynamics = 'bfgs', 
cell_factor = 2.0, 
press = 0.0, 
/ 
ATOMIC_SPECIES 
Pd 106.42 Pd.pbe-spn-kjpaw_psl.1.0.0.UPF 
Fe1 55.845 Fe.pbe-spn-kjpaw_psl.1.0.0.UPF 
Fe2 55.845 Fe.pbe-spn-kjpaw_psl.1.0.0.UPF 
Fe3 55.845 Fe.pbe-spn-kjpaw_psl.1.0.0.UPF 
Fe4 55.845 Fe.pbe-spn-kjpaw_psl.1.0.0.UPF 
ATOMIC_POSITIONS crystal
Pd   -0.000845080928593   -0.000707764598352   -0.000608728556752   
Fe2   0.254602729593   0.253940270632   -0.000603363306094   
Fe3   0.256073173751   -0.000661045495179   0.25697687408   
Fe4   -0.000815335547614   0.254840780811   0.254840689623   
Fe1   -0.00016805541444   -0.000167629747816   0.498952293221   
Fe2   0.2499879947   0.24966291876   0.499240019499   
Fe3   0.256356326207   -0.000386338966999   0.741916027834   
Fe4   -0.000639505349262   0.254606853888   0.744545720837   
Fe1   -0.000211109740156   0.499511147954   -0.00080462553981   
Fe2   0.254743546809   0.744571490267   0.00018293830647   
Fe3   0.25047499587   0.499513492385   0.250620287084   
Fe4   -0.000678420474803   0.744289948236   0.254469052966   
Fe1   -0.000509879618116   0.499618836445   0.4994639689   
Fe2   0.249623321124   0.748647571058   0.498928016447   
Fe3   0.250821098992   0.498802215224   0.747718699249   
Fe4   -0.00153816157477   0.743532929831   0.744036529999   
Fe1   0.499709428269   -0.000952473397992   -0.000859286969823   
Fe2   0.74384107279   0.25457267311   -0.0013155792668   
Fe3   0.741316016099   -0.000942427225825   0.256464400882   
Fe4   0.499173087665   0.249956626788   0.249304337873   
Fe1   0.499046299871   -7.67884789402e-05   0.499167258242   
Fe2   0.748915425617   0.249358470479   0.499119606224   
Fe3   0.742255582643   -0.000881776894912   0.742239027729   
Fe4   0.499258135566   0.249789724488   0.748750797375   
Fe1   0.498885449934   0.499528527522   -0.00128291873576   
Fe2   0.743512474296   0.744396961803   -0.000126217604932   
Fe3   0.748667915183   0.498829875651   0.249904797259   
Fe4   0.499437374971   0.748034034668   0.25019037966   
Fe1   0.498471287846   0.499499772266   0.499326431187   
Fe2   0.749144031778   0.748478333652   0.498890497667   
Fe3   0.748307564761   0.499292220087   0.748759127056   
Fe4   0.499264725765   0.748385426745   0.748569796661   
K_POINTS automatic
9 9 9 1 1 1  
CELL_PARAMETERS alat
1.0 0.0 0.0 
0.0 1.054129443 0.0 
0.0 0.0 0.999992919