! Edited 0:44   19/7/2021
&CONTROL 
calculation = "scf", 
disk_io = 'low', 
etot_conv_thr = 1.0E-4, 
forc_conv_thr = 1.0D-3, 
nstep = 40, 
outdir = "/scratch", 
prefix = "ReQNDHXjztmsjmGv", 
pseudo_dir = "/opt/pp", 
restart_mode = 'from_scratch', 
tprnfor = .true., 
tstress = .true., 
/ 
&SYSTEM 
celldm(1) = 15.2741088, 
degauss = 0.02, 
ecutrho = 200, 
ecutwfc = 50, 
ibrav = 0, 
nat = 32, 
nspin = 1, 
ntyp = 1, 
occupations = 'smearing', 
smearing = 'mv', 
starting_magnetization(1) = 0, 
/ 
&ELECTRONS 
conv_thr = 1.0D-6, 
diagonalization = 'david', 
mixing_beta = 1.0000000E-01, 
mixing_mode = 'TF', 
mixing_ndim = 10, 
/ 
&IONS 
ion_dynamics = 'bfgs', 
/ 
&CELL 
cell_dynamics = 'bfgs', 
cell_factor = 2.0, 
press = 0.0, 
/ 
ATOMIC_SPECIES 
Al 26.982 Al.pbe-nl-kjpaw_psl.1.0.0.UPF 
ATOMIC_POSITIONS crystal
Al   -0.000360022913595   -0.000317844441691   -0.000259329810116   
Al   0.249752232354   0.249482704361   -0.000257044112462   
Al   0.249579800516   -0.000296863726777   0.249968082279   
Al   -0.000347350732312   0.249891313953   0.249856303698   
Al   -7.15952731923e-05   -7.52795261724e-05   0.499553657214   
Al   0.24979204925   0.249505262264   0.499676234018   
Al   0.24970042964   -0.000173497930746   0.749560699566   
Al   -0.000272443231543   0.24978626155   0.749882722493   
Al   -8.99373553084e-05   0.499780422613   -0.000342785608034   
Al   0.24981222356   0.749848826048   7.79351580497e-05   
Al   0.249861705594   0.499781475456   0.24992365065   
Al   -0.000289021924075   0.749718183997   0.249697979494   
Al   -0.000217219841894   0.499828783592   0.499771640673   
Al   0.24963669035   0.749735880897   0.499543314851   
Al   0.250009153075   0.499462053585   0.749368726298   
Al   -0.000655290390532   0.74937822055   0.749665797622   
Al   0.499876295307   -0.000427738793542   -0.00036607240493   
Al   0.749585006945   0.24976670502   -0.000560461502369   
Al   0.749308107806   -0.000423227237028   0.249749759062   
Al   0.499647802508   0.24963402176   0.249504393529   
Al   0.499593788141   -3.44843345851e-05   0.499645236355   
Al   0.749740997317   0.249368539977   0.499624935699   
Al   0.749708383653   -0.000395990256523   0.749698303594   
Al   0.49968403477   0.249559068918   0.749667483965   
Al   0.499525262559   0.499788227467   -0.000546547502084   
Al   0.749445016818   0.749770448431   -5.37710727667e-05   
Al   0.749773326649   0.499474475388   0.249618838533   
Al   0.499760394666   0.749463492194   0.24988186399   
Al   0.499348820473   0.499775313995   0.499713047022   
Al   0.749838388529   0.7496598794   0.499527331146   
Al   0.749619809507   0.499682106018   0.749811968105   
Al   0.499686842338   0.749621296101   0.749590374258   
K_POINTS automatic
3 3 3 1 1 1 
CELL_PARAMETERS alat
1.0 0.0 0.0 
0.0 1.0 0.0 
0.0 0.0 1.0