! Edited 0:44   19/7/2021
&CONTROL 
calculation = "scf", 
disk_io = 'low', 
etot_conv_thr = 1.0E-4, 
forc_conv_thr = 1.0D-3, 
nstep = 40, 
outdir = "/scratch", 
prefix = "mchOsKZIgoSmioml", 
pseudo_dir = "/opt/pp", 
restart_mode = 'from_scratch', 
tprnfor = .true., 
tstress = .true., 
/ 
&SYSTEM 
celldm(1) = 15.27601294, 
degauss = 0.02, 
ecutrho = 200, 
ecutwfc = 50, 
ibrav = 0, 
nat = 32, 
nspin = 1, 
ntyp = 1, 
occupations = 'smearing', 
smearing = 'mv', 
starting_magnetization(1) = 0, 
/ 
&ELECTRONS 
conv_thr = 1.0D-6, 
diagonalization = 'david', 
mixing_beta = 1.0000000E-01, 
mixing_mode = 'TF', 
mixing_ndim = 10, 
/ 
&IONS 
ion_dynamics = 'bfgs', 
/ 
&CELL 
cell_dynamics = 'bfgs', 
cell_factor = 2.0, 
press = 0.0, 
/ 
ATOMIC_SPECIES 
Al 26.982 Al.pbe-nl-kjpaw_psl.1.0.0.UPF 
ATOMIC_POSITIONS crystal
Al   -0.000719956074185   -0.000635609645388   -0.000518594969821   
Al   0.249504526475   0.248965537683   -0.000514024144331   
Al   0.249159705787   -0.000593653446011   0.249936172516   
Al   -0.000694614870768   0.249782655002   0.249712643219   
Al   -0.000143172697824   -0.000150540285307   0.4991074257   
Al   0.249584150342   0.249010647865   0.49935254875   
Al   0.249400933962   -0.000346952608799   0.749121508648   
Al   -0.000544818543523   0.249572576384   0.749765474222   
Al   -0.000179852289411   0.499560899967   -0.000685485760289   
Al   0.249624493932   0.749697689783   0.000155850887018   
Al   0.249723445665   0.499563005389   0.249847320335   
Al   -0.000577971795552   0.74943643825   0.249396034282   
Al   -0.000434385531309   0.499657609867   0.499543338276   
Al   0.249273471273   0.749471827639   0.499086743554   
Al   0.250018303869   0.498924241279   0.748737609972   
Al   -0.00131041741846   0.748756596109   0.749331678561   
Al   0.499752621454   -0.000855370952643   -0.000732053548728   
Al   0.749170117347   0.2495334682   -0.00112078328279   
Al   0.748616388099   -0.000846348964338   0.249499580508   
Al   0.499295692819   0.249268134758   0.249008910612   
Al   0.499187677551   -6.89600722934e-05   0.499290561151   
Al   0.749482059202   0.248737237376   0.4992499649   
Al   0.749416840006   -0.000791881793454   0.7493966824   
Al   0.499368148309   0.24911824776   0.749335050826   
Al   0.499050643469   0.499576507728   -0.00109295875095   
Al   0.748890171991   0.749540954089   -0.000107528740511   
Al   0.749546709808   0.498949081789   0.249237772088   
Al   0.499520849066   0.748927118138   0.24976375743   
Al   0.498697803284   0.499550684004   0.49942616558   
Al   0.749676817347   0.749319843592   0.499054780128   
Al   0.749239713795   0.499364291286   0.749623983087   
Al   0.499373762745   0.749242686612   0.749180850634   
K_POINTS automatic
3 3 3 1 1 1 
CELL_PARAMETERS alat
1.0 0.0 0.0 
0.0 1.0 0.0 
0.0 0.0 1.0