! Edited 0:44   19/7/2021
&CONTROL 
calculation = "scf", 
disk_io = 'low', 
etot_conv_thr = 1.0E-4, 
forc_conv_thr = 1.0D-3, 
nstep = 40, 
outdir = "/scratch", 
prefix = "ApLlHtDAZiCfvjHs", 
pseudo_dir = "/opt/pp", 
restart_mode = 'from_scratch', 
tprnfor = .true., 
tstress = .true., 
/ 
&SYSTEM 
celldm(1) = 15.26728039, 
degauss = 0.02, 
ecutrho = 200, 
ecutwfc = 50, 
ibrav = 0, 
nat = 32, 
nspin = 1, 
ntyp = 1, 
occupations = 'smearing', 
smearing = 'mv', 
starting_magnetization(1) = 0, 
/ 
&ELECTRONS 
conv_thr = 1.0D-6, 
diagonalization = 'david', 
mixing_beta = 1.0000000E-01, 
mixing_mode = 'TF', 
mixing_ndim = 10, 
/ 
&IONS 
ion_dynamics = 'bfgs', 
/ 
&CELL 
cell_dynamics = 'bfgs', 
cell_factor = 2.0, 
press = 0.0, 
/ 
ATOMIC_SPECIES 
Al 26.982 Al.pbe-nl-kjpaw_psl.1.0.0.UPF 
ATOMIC_POSITIONS crystal
Al   -0.000720367873291   -0.000635973200184   -0.000518891594785   
Al   0.249504243075   0.248964945993   -0.000514318154884   
Al   0.249159225157   -0.00059399300278   0.249936136008   
Al   -0.000695012175261   0.249782530685   0.249712478857   
Al   -0.000143254589471   -0.000150626391053   0.499106915167   
Al   0.249583912485   0.249010081977   0.499352178422   
Al   0.24940059131   -0.000347151058092   0.74912100617   
Al   -0.000545130167797   0.249572331907   0.749765340079   
Al   -0.000179955160981   0.499560648811   -0.00068587784313   
Al   0.249624279151   0.749697516868   0.000155940030312   
Al   0.249723287482   0.499562755438   0.249847233005   
Al   -0.000578302382761   0.749436115905   0.249395688827   
Al   -0.000434633990319   0.499657414028   0.499543077075   
Al   0.249273055715   0.749471525536   0.499086221191   
Al   0.250018314338   0.498923625968   0.748736887912   
Al   -0.00131116694852   0.748755884909   0.749331296295   
Al   0.499752479959   -0.000855860206094   -0.000732472267325   
Al   0.749169642673   0.249533201354   -0.00112142434628   
Al   0.748615596703   -0.000846833057409   0.249499294279   
Al   0.49929528997   0.249267716148   0.249008343731   
Al   0.49918721292   -6.89995159444e-05   0.499290155367   
Al   0.749481762951   0.248736515104   0.499249535897   
Al   0.749416506451   -0.000792334732496   0.749396337315   
Al   0.499367786903   0.249117743417   0.749334670489   
Al   0.499050100458   0.4995762655   -0.00109358389942   
Al   0.748889537194   0.749540691525   -0.000107590244595   
Al   0.749546450536   0.498948480687   0.249237336111   
Al   0.499520575002   0.748926504473   0.249763622305   
Al   0.498697058456   0.499550427005   0.499425837359   
Al   0.749676632494   0.749319454557   0.499054239483   
Al   0.749239278928   0.499363927675   0.749623768013   
Al   0.499373404551   0.749242253445   0.749180382099   
K_POINTS automatic
3 3 3 1 1 1 
CELL_PARAMETERS alat
1.0 0.0 0.0 
0.0 1.0 0.0 
0.0 0.0 1.0