! Edited 0:44   19/7/2021
&CONTROL 
calculation = "scf", 
disk_io = 'low', 
etot_conv_thr = 1.0E-4, 
forc_conv_thr = 1.0D-3, 
nstep = 40, 
outdir = "/scratch", 
prefix = "RlLckEmHImHvsLsA", 
pseudo_dir = "/opt/pp", 
restart_mode = 'from_scratch', 
tprnfor = .true., 
tstress = .true., 
/ 
&SYSTEM 
celldm(1) = 15.27580845, 
degauss = 0.02, 
ecutrho = 200, 
ecutwfc = 50, 
ibrav = 0, 
nat = 32, 
nspin = 1, 
ntyp = 1, 
occupations = 'smearing', 
smearing = 'mv', 
starting_magnetization(1) = 0, 
/ 
&ELECTRONS 
conv_thr = 1.0D-6, 
diagonalization = 'david', 
mixing_beta = 1.0000000E-01, 
mixing_mode = 'TF', 
mixing_ndim = 10, 
/ 
&IONS 
ion_dynamics = 'bfgs', 
/ 
&CELL 
cell_dynamics = 'bfgs', 
cell_factor = 2.0, 
press = 0.0, 
/ 
ATOMIC_SPECIES 
Al 26.982 Al.pbe-nl-kjpaw_psl.1.0.0.UPF 
ATOMIC_POSITIONS crystal
Al   -0.000719965711895   -0.000635618153993   -0.000518601912005   
Al   0.249504519842   0.248965523835   -0.000514031025329   
Al   0.249159694538   -0.000593661392968   0.249936171661   
Al   -0.000694624169248   0.249782652092   0.249712639372   
Al   -0.000143174614409   -0.000150542300518   0.499107413751   
Al   0.249584144776   0.249010634621   0.499352540083   
Al   0.249400925943   -0.000346957253289   0.749121496888   
Al   -0.00054482583675   0.249572570663   0.749765471083   
Al   -0.000179854697008   0.499560894089   -0.000685494936561   
Al   0.249624488905   0.749697685736   0.00015585297332   
Al   0.249723441963   0.499562999539   0.249847318291   
Al   -0.000577979532586   0.749436430706   0.249396026197   
Al   -0.000434391346222   0.499657605284   0.499543332163   
Al   0.249273461547   0.749471820568   0.499086731328   
Al   0.250018304114   0.498924226878   0.748737593073   
Al   -0.00131043496039   0.748756579464   0.749331669614   
Al   0.499752618142   -0.000855382403088   -0.000732063348382   
Al   0.749170106238   0.249533461955   -0.00112079828618   
Al   0.748616369577   -0.00084636029401   0.249499573809   
Al   0.49929568339   0.249268124961   0.249008897345   
Al   0.499187666676   -6.89609954292e-05   0.499290551654   
Al   0.749482052268   0.248737220472   0.49924995486   
Al   0.749416832199   -0.000791892394   0.749396674323   
Al   0.49936813985   0.249118235956   0.749335041924   
Al   0.49905063076   0.499576502059   -0.00109297338187   
Al   0.748890157135   0.749540947944   -0.000107530179947   
Al   0.74954670374   0.498949067721   0.249237761885   
Al   0.499520842652   0.748927103776   0.249763754268   
Al   0.498697785852   0.499550677989   0.499426157898   
Al   0.749676813021   0.749319834487   0.499054767475   
Al   0.749239703617   0.499364282776   0.749623978053   
Al   0.499373754362   0.749242676474   0.749180839669   
K_POINTS automatic
3 3 3 1 1 1 
CELL_PARAMETERS alat
1.0 0.0 0.0 
0.0 1.0 0.0 
0.0 0.0 1.0