! Edited 0:44   19/7/2021
&CONTROL 
calculation = "scf", 
disk_io = 'low', 
etot_conv_thr = 1.0E-4, 
forc_conv_thr = 1.0D-3, 
nstep = 40, 
outdir = "/scratch", 
prefix = "gMuCueIhyhQXarqj", 
pseudo_dir = "/opt/pp", 
restart_mode = 'from_scratch', 
tprnfor = .true., 
tstress = .true., 
/ 
&SYSTEM 
celldm(1) = 15.28152738, 
degauss = 0.02, 
ecutrho = 200, 
ecutwfc = 50, 
ibrav = 0, 
nat = 32, 
nspin = 1, 
ntyp = 1, 
occupations = 'smearing', 
smearing = 'mv', 
starting_magnetization(1) = 0, 
/ 
&ELECTRONS 
conv_thr = 1.0D-6, 
diagonalization = 'david', 
mixing_beta = 1.0000000E-01, 
mixing_mode = 'TF', 
mixing_ndim = 10, 
/ 
&IONS 
ion_dynamics = 'bfgs', 
/ 
&CELL 
cell_dynamics = 'bfgs', 
cell_factor = 2.0, 
press = 0.0, 
/ 
ATOMIC_SPECIES 
Al 26.982 Al.pbe-nl-kjpaw_psl.1.0.0.UPF 
ATOMIC_POSITIONS crystal
Al   -0.000719696273285   -0.000635380281453   -0.000518407831403   
Al   0.24950470527   0.248965910975   -0.000513838655327   
Al   0.249160009013   -0.000593439222247   0.249936195548   
Al   -0.000694364214408   0.249782733432   0.249712746914   
Al   -0.000143121033011   -0.000150485961852   0.499107747791   
Al   0.249584300404   0.249011004879   0.499352782387   
Al   0.249401150139   -0.00034682740866   0.749121825658   
Al   -0.000544621942156   0.249572730623   0.749765558853   
Al   -0.000179787388525   0.499561058419   -0.000685238398229   
Al   0.249624629436   0.749697798874   0.000155794647197   
Al   0.249723545461   0.499563163081   0.24984737543   
Al   -0.000577763230616   0.749436641615   0.249396252227   
Al   -0.000434228780423   0.499657733421   0.499543503065   
Al   0.249273733446   0.749472018233   0.499087073108   
Al   0.250018297264   0.498924629473   0.748738065514   
Al   -0.00130994454568   0.748757044799   0.749331919729   
Al   0.499752710722   -0.00085506228639   -0.000731789382375   
Al   0.749170416816   0.249533636551   -0.00112037884074   
Al   0.748616887385   -0.000846043553729   0.249499761088   
Al   0.499295946972   0.249268398857   0.249009268253   
Al   0.499187970683   -6.89351875963e-05   0.499290817157   
Al   0.749482246104   0.248737693053   0.499250235556   
Al   0.749417050443   -0.000791596037683   0.749396900111   
Al   0.499368376317   0.249118565946   0.749335290777   
Al   0.49905098605   0.499576660548   -0.00109256434957   
Al   0.74889057248   0.749541119739   -0.000107489938055   
Al   0.749546873381   0.49894946102   0.249238047143   
Al   0.499521021971   0.748927505295   0.24976384268   
Al   0.49869827319   0.499550846142   0.499426372652   
Al   0.74967693397   0.749320089031   0.499055121217   
Al   0.749239988149   0.499364520686   0.749624118775   
Al   0.499373988727   0.749242959893   0.74918114623   
K_POINTS automatic
3 3 3 1 1 1 
CELL_PARAMETERS alat
1.0 0.0 0.0 
0.0 1.0 0.0 
0.0 0.0 1.0