! Edited 0:44   19/7/2021
&CONTROL 
calculation = "scf", 
disk_io = 'low', 
etot_conv_thr = 1.0E-4, 
forc_conv_thr = 1.0D-3, 
nstep = 40, 
outdir = "/scratch", 
prefix = "mchOsKZIgoSmioml", 
pseudo_dir = "/opt/pp", 
restart_mode = 'from_scratch', 
tprnfor = .true., 
tstress = .true., 
/ 
&SYSTEM 
celldm(1) = 15.27601294, 
degauss = 0.02, 
ecutrho = 200, 
ecutwfc = 50, 
ibrav = 0, 
nat = 32, 
nspin = 1, 
ntyp = 1, 
occupations = 'smearing', 
smearing = 'mv', 
starting_magnetization(1) = 0, 
/ 
&ELECTRONS 
conv_thr = 1.0D-6, 
diagonalization = 'david', 
mixing_beta = 1.0000000E-01, 
mixing_mode = 'TF', 
mixing_ndim = 10, 
/ 
&IONS 
ion_dynamics = 'bfgs', 
/ 
&CELL 
cell_dynamics = 'bfgs', 
cell_factor = 2.0, 
press = 0.0, 
/ 
ATOMIC_SPECIES 
Al 26.982 Al.pbe-nl-kjpaw_psl.1.0.0.UPF 
ATOMIC_POSITIONS crystal
Al   -0.00107993411128   -0.000953414468082   -0.000777892454731   
Al   0.249256789713   0.248448306524   -0.000771036216497   
Al   0.248739558681   -0.000890480169016   0.249904258773   
Al   -0.00104192230615   0.249673982503   0.249568964828   
Al   -0.000214759046736   -0.00022581042796   0.498661138549   
Al   0.249376225514   0.248515971797   0.499028823125   
Al   0.249101400943   -0.000520428913198   0.748682262972   
Al   -0.000817227815285   0.249358864576   0.749648211334   
Al   -0.000269778434116   0.49934134995   -0.00102822864043   
Al   0.249436740898   0.749546534674   0.000233776330527   
Al   0.249585168497   0.499344508083   0.249770980502   
Al   -0.000866957693328   0.749154657375   0.249094051423   
Al   -0.000651578296963   0.499486414801   0.499315007414   
Al   0.24891020691   0.749207741458   0.498630115331   
Al   0.250027455803   0.498386361918   0.748106414958   
Al   -0.00196562612769   0.748134894163   0.748997517841   
Al   0.499628932181   -0.00128305642896   -0.00109808032309   
Al   0.748755176021   0.2493002023   -0.00168117492418   
Al   0.747924582149   -0.00126952344651   0.249249370762   
Al   0.498943539228   0.248902202138   0.248513365918   
Al   0.498781516326   -0.00010344010844   0.498935841726   
Al   0.749223088803   0.248105856065   0.498874947351   
Al   0.749125260009   -0.00118782269018   0.749095023599   
Al   0.499052222463   0.24867737164   0.749002576239   
Al   0.498575965203   0.499364761592   -0.00163943812642   
Al   0.748335257987   0.749311431134   -0.000161293110766   
Al   0.749320064712   0.498423622683   0.248856658133   
Al   0.499281273599   0.748390677207   0.249645636146   
Al   0.498046704926   0.499326026006   0.49913924837   
Al   0.749515226021   0.748979765387   0.498582170192   
Al   0.748859570693   0.499046436929   0.74943597463   
Al   0.499060644118   0.748864029917   0.748771275952   
K_POINTS automatic
3 3 3 1 1 1 
CELL_PARAMETERS alat
1.0 0.0 0.0 
0.0 1.0 0.0 
0.0 0.0 1.0