! Edited 0:44   19/7/2021
&CONTROL 
calculation = "scf", 
disk_io = 'low', 
etot_conv_thr = 1.0E-4, 
forc_conv_thr = 1.0D-3, 
nstep = 40, 
outdir = "/scratch", 
prefix = "gMuCueIhyhQXarqj", 
pseudo_dir = "/opt/pp", 
restart_mode = 'from_scratch', 
tprnfor = .true., 
tstress = .true., 
/ 
&SYSTEM 
celldm(1) = 15.28152738, 
degauss = 0.02, 
ecutrho = 200, 
ecutwfc = 50, 
ibrav = 0, 
nat = 32, 
nspin = 1, 
ntyp = 1, 
occupations = 'smearing', 
smearing = 'mv', 
starting_magnetization(1) = 0, 
/ 
&ELECTRONS 
conv_thr = 1.0D-6, 
diagonalization = 'david', 
mixing_beta = 1.0000000E-01, 
mixing_mode = 'TF', 
mixing_ndim = 10, 
/ 
&IONS 
ion_dynamics = 'bfgs', 
/ 
&CELL 
cell_dynamics = 'bfgs', 
cell_factor = 2.0, 
press = 0.0, 
/ 
ATOMIC_SPECIES 
Al 26.982 Al.pbe-nl-kjpaw_psl.1.0.0.UPF 
ATOMIC_POSITIONS crystal
Al   -0.00107954440993   -0.00095307042218   -0.000777611747105   
Al   0.249257057905   0.248448866463   -0.00077075798299   
Al   0.248740013519   -0.000890158833371   0.249904293322   
Al   -0.00104154632161   0.249674100148   0.24956912037   
Al   -0.000214681549516   -0.000225728942777   0.498661621686   
Al   0.249376450607   0.248516507318   0.499029173581   
Al   0.249101725209   -0.00052024111299   0.748682738486   
Al   -0.000816932913234   0.249359095934   0.749648338279   
Al   -0.000269681082788   0.499341587628   -0.00102785759734   
Al   0.249436944154   0.74954669831   0.000233691970795   
Al   0.249585318192   0.499344744622   0.249771063145   
Al   -0.000866644845924   0.749154962422   0.24909437834   
Al   -0.000651343170635   0.499486600132   0.499315254598   
Al   0.248910600169   0.74920802735   0.498630609662   
Al   0.250027445896   0.49838694421   0.74810709827   
Al   -0.00196491681853   0.748135567199   0.748997879593   
Al   0.499629066083   -0.00128259342959   -0.00109768407356   
Al   0.748755625224   0.249300454827   -0.00168056826111   
Al   0.747925331077   -0.00126906533059   0.249249641632   
Al   0.498943920459   0.248902598285   0.24851390238   
Al   0.498781956024   -0.000103402781394   0.498936225735   
Al   0.749223369156   0.248106539579   0.498875353333   
Al   0.749125575664   -0.00118739405652   0.749095350166   
Al   0.499052564475   0.248677848919   0.749002936166   
Al   0.498576479075   0.499364990822   -0.00163884652436   
Al   0.74833585872   0.749311679609   -0.000161234907083   
Al   0.749320310071   0.49842419153   0.248857070715   
Al   0.499281532956   0.748391257942   0.24964576402   
Al   0.498047409786   0.499326269214   0.499139558978   
Al   0.749515400955   0.748980133546   0.498582681825   
Al   0.748859982224   0.499046781029   0.749436178162   
Al   0.499060983091   0.74886443984   0.748771719345   
K_POINTS automatic
3 3 3 1 1 1 
CELL_PARAMETERS alat
1.0 0.0 0.0 
0.0 1.0 0.0 
0.0 0.0 1.0