! Edited 0:44   19/7/2021
&CONTROL 
calculation = "scf", 
disk_io = 'low', 
etot_conv_thr = 1.0E-4, 
forc_conv_thr = 1.0D-3, 
nstep = 40, 
outdir = "/scratch", 
prefix = "CVgWGJoyuiacBmnv", 
pseudo_dir = "/opt/pp", 
restart_mode = 'from_scratch', 
tprnfor = .true., 
tstress = .true., 
/ 
&SYSTEM 
celldm(1) = 15.2890603, 
degauss = 0.02, 
ecutrho = 200, 
ecutwfc = 50, 
ibrav = 0, 
nat = 32, 
nspin = 1, 
ntyp = 1, 
occupations = 'smearing', 
smearing = 'mv', 
starting_magnetization(1) = 0, 
/ 
&ELECTRONS 
conv_thr = 1.0D-6, 
diagonalization = 'david', 
mixing_beta = 1.0000000E-01, 
mixing_mode = 'TF', 
mixing_ndim = 10, 
/ 
&IONS 
ion_dynamics = 'bfgs', 
/ 
&CELL 
cell_dynamics = 'bfgs', 
cell_factor = 2.0, 
press = 0.0, 
/ 
ATOMIC_SPECIES 
Al 26.982 Al.pbe-nl-kjpaw_psl.1.0.0.UPF 
ATOMIC_POSITIONS crystal
Al   -0.0010790125184   -0.000952600844383   -0.000777228617798   
Al   0.249257423952   0.248449630706   -0.000770378230533   
Al   0.248740634314   -0.000889720252114   0.249904340477   
Al   -0.00104103315174   0.249674260719   0.249569332665   
Al   -0.000214575775917   -0.000225617726127   0.498662281105   
Al   0.24937675783   0.248517238235   0.499029651907   
Al   0.249102167789   -0.000519984790194   0.748683387501   
Al   -0.000816530410389   0.249359411708   0.749648511543   
Al   -0.000269548210919   0.499341912028   -0.00102735117191   
Al   0.249437221571   0.749546921652   0.000233576830761   
Al   0.249585522506   0.499345067466   0.249771175942   
Al   -0.000866217850009   0.749155378772   0.24909482454   
Al   -0.000651022253855   0.499486853084   0.499315591972   
Al   0.248911136916   0.749208417555   0.498631284361   
Al   0.250027432373   0.498387738962   0.748108030903   
Al   -0.00196394870401   0.748136485805   0.748998373338   
Al   0.499629248842   -0.0012819614958   -0.00109714324462   
Al   0.748756238327   0.249300799493   -0.00167974024513   
Al   0.747926353266   -0.00126844006211   0.249250011333   
Al   0.498944440789   0.248903138975   0.24851463458   
Al   0.498782556154   -0.000103351834844   0.498936749857   
Al   0.749223751802   0.248107472487   0.498875907447   
Al   0.749126006493   -0.00118680902747   0.749095795887   
Al   0.499053031276   0.248678500343   0.749003427419   
Al   0.498577180444   0.499365303691   -0.00163803906468   
Al   0.748336678643   0.749312018744   -0.000161155466644   
Al   0.749320644954   0.49842496793   0.248857633836   
Al   0.499281886945   0.748392050569   0.249645938552   
Al   0.498048371827   0.499326601161   0.499139982917   
Al   0.749515639717   0.748980636034   0.498583380138   
Al   0.748860543911   0.49904725068   0.749436455957   
Al   0.499061445744   0.74886499933   0.748772324519   
K_POINTS automatic
3 3 3 1 1 1 
CELL_PARAMETERS alat
1.0 0.0 0.0 
0.0 1.0 0.0 
0.0 0.0 1.0