! Edited 4:27   19/3/2020
&CONTROL 
calculation = "scf", 
disk_io = 'low', 
etot_conv_thr = 1.0E-4, 
forc_conv_thr = 1.0D-3, 
nstep = 40, 
outdir = "/opt/scratch", 
prefix = "ApLlHtDAZiCfvjHs", 
pseudo_dir = "/opt/pp", 
restart_mode = 'from_scratch', 
tprnfor = .true., 
tstress = .true., 
/ 
&SYSTEM 
celldm(1) = 7.63364019, 
degauss = 0.02, 
ecutrho = 126, 
ecutwfc = 25, 
ibrav = 0, 
nat = 8, 
nspin = 1, 
ntyp = 1, 
occupations = 'smearing', 
smearing = 'mv', 
starting_magnetization(1) = 0, 
/ 
&ELECTRONS 
conv_thr = 1.0D-6, 
diagonalization = 'david', 
mixing_beta = 1.0000000E-01, 
mixing_mode = 'TF', 
mixing_ndim = 10, 
/ 
&IONS 
ion_dynamics = 'bfgs', 
/ 
&CELL 
cell_dynamics = 'bfgs', 
cell_factor = 2.0, 
press = 0.0, 
/ 
ATOMIC_SPECIES 
Al 26.982 Al.pbe-nl-kjpaw_psl.1.0.0.UPF 
ATOMIC_POSITIONS crystal
Al   -0.00144073574753   -0.0012719464012   -0.00103778319025   
Al   0.499008486149   0.497929891984   -0.00102863631044   
Al   0.498318450313   -0.00118798600634   0.499872272015   
Al   -0.00139002435143   0.49956506137   0.499424957714   
Al   0.249713490821   0.249698747218   0.248213830332   
Al   0.74916782497   0.748020163953   0.248704356844   
Al   0.248801182618   0.749305697883   0.74824201234   
Al   0.748909739664   0.249144663814   0.749530680157   
K_POINTS automatic
3 3 3 1 1 1  
CELL_PARAMETERS alat
1.0 0.0 0.0 
0.0 1.0 0.0 
0.0 0.0 1.0