! Edited 0:44   19/7/2021
&CONTROL 
calculation = "scf", 
disk_io = 'low', 
etot_conv_thr = 1.0E-4, 
forc_conv_thr = 1.0D-3, 
nstep = 40, 
outdir = "/scratch", 
prefix = "RlLckEmHImHvsLsA", 
pseudo_dir = "/opt/pp", 
restart_mode = 'from_scratch', 
tprnfor = .true., 
tstress = .true., 
/ 
&SYSTEM 
celldm(1) = 15.27580845, 
degauss = 0.02, 
ecutrho = 200, 
ecutwfc = 50, 
ibrav = 0, 
nat = 32, 
nspin = 1, 
ntyp = 1, 
occupations = 'smearing', 
smearing = 'mv', 
starting_magnetization(1) = 0, 
/ 
&ELECTRONS 
conv_thr = 1.0D-6, 
diagonalization = 'david', 
mixing_beta = 1.0000000E-01, 
mixing_mode = 'TF', 
mixing_ndim = 10, 
/ 
&IONS 
ion_dynamics = 'bfgs', 
/ 
&CELL 
cell_dynamics = 'bfgs', 
cell_factor = 2.0, 
press = 0.0, 
/ 
ATOMIC_SPECIES 
Al 26.982 Al.pbe-nl-kjpaw_psl.1.0.0.UPF 
ATOMIC_POSITIONS crystal
Al   -0.00287986284758   -0.00254247261597   -0.00207440764802   
Al   0.248018079369   0.245862095339   -0.00205612410132   
Al   0.246638778154   -0.00237464557187   0.249744686644   
Al   -0.00277849667699   0.249130608369   0.248850557489   
Al   -0.000572698457635   -0.000602169202073   0.496429655004   
Al   0.248336579102   0.246042538483   0.497410160332   
Al   0.247603703771   -0.00138782901315   0.746485987553   
Al   -0.002179303347   0.24829028265   0.749061884332   
Al   -0.000719418788033   0.498243576355   -0.00274197974625   
Al   0.248497955621   0.748790742944   0.000623411893279   
Al   0.248893767851   0.498251998156   0.249389273163   
Al   -0.00231191813035   0.747745722823   0.247584104787   
Al   -0.00173756538489   0.498630421136   0.498173328651   
Al   0.24709384619   0.747887282273   0.496346925313   
Al   0.250073216456   0.495696907511   0.744950372291   
Al   -0.00524173984158   0.745026317856   0.747326678456   
Al   0.49901047257   -0.00342152961235   -0.00292825339353   
Al   0.746680424952   0.24813384782   -0.00448319314472   
Al   0.744465478309   -0.00338544117604   0.247998295237   
Al   0.497182733561   0.247072499845   0.24603558938   
Al   0.496750666706   -0.000275843981717   0.497162206616   
Al   0.747928209074   0.24494888189   0.49699981944   
Al   0.747667328797   -0.003167569576   0.747586697293   
Al   0.497472559402   0.246472943826   0.747340167698   
Al   0.496202523041   0.498306008236   -0.00437189352748   
Al   0.745560628538   0.748163791777   -0.000430120719788   
Al   0.74818681496   0.495796270883   0.24695104754   
Al   0.498083370608   0.745708415104   0.249055017072   
Al   0.494791143409   0.498202711956   0.497704631594   
Al   0.748707252083   0.747279337947   0.496219069898   
Al   0.74695881447   0.497457131104   0.748495912212   
Al   0.497495017448   0.746970705895   0.746723358675   
K_POINTS automatic
3 3 3 1 1 1 
CELL_PARAMETERS alat
1.0 0.0 0.0 
0.0 1.0 0.0 
0.0 0.0 1.0