! Edited 0:44   19/7/2021
&CONTROL 
calculation = "scf", 
disk_io = 'low', 
etot_conv_thr = 1.0E-4, 
forc_conv_thr = 1.0D-3, 
nstep = 40, 
outdir = "/scratch", 
prefix = "mchOsKZIgoSmioml", 
pseudo_dir = "/opt/pp", 
restart_mode = 'from_scratch', 
tprnfor = .true., 
tstress = .true., 
/ 
&SYSTEM 
celldm(1) = 15.27601294, 
degauss = 0.02, 
ecutrho = 200, 
ecutwfc = 50, 
ibrav = 0, 
nat = 32, 
nspin = 1, 
ntyp = 1, 
occupations = 'smearing', 
smearing = 'mv', 
starting_magnetization(1) = 0, 
/ 
&ELECTRONS 
conv_thr = 1.0D-6, 
diagonalization = 'david', 
mixing_beta = 1.0000000E-01, 
mixing_mode = 'TF', 
mixing_ndim = 10, 
/ 
&IONS 
ion_dynamics = 'bfgs', 
/ 
&CELL 
cell_dynamics = 'bfgs', 
cell_factor = 2.0, 
press = 0.0, 
/ 
ATOMIC_SPECIES 
Al 26.982 Al.pbe-nl-kjpaw_psl.1.0.0.UPF 
ATOMIC_POSITIONS crystal
Al   -0.00287982429674   -0.00254243858155   -0.00207437987928   
Al   0.2480181059   0.24586215073   -0.00205609657733   
Al   0.246638823148   -0.00237461378404   0.249744690062   
Al   -0.00277845948307   0.249130620007   0.248850572876   
Al   -0.000572690791295   -0.000602161141228   0.496429702798   
Al   0.24833660137   0.246042591459   0.497410195001   
Al   0.247603735849   -0.00138781043519   0.746486034593   
Al   -0.00217927417409   0.248290305537   0.749061896889   
Al   -0.000719409157644   0.498243599867   -0.00274194304116   
Al   0.248497975728   0.748790759132   0.000623403548071   
Al   0.248893782659   0.498252021556   0.249389281338   
Al   -0.00231188718221   0.747745753   0.247584137127   
Al   -0.00173754212523   0.49863043947   0.498173353103   
Al   0.247093885093   0.747887310554   0.496346974215   
Al   0.250073215476   0.495696965114   0.744950439887   
Al   -0.00524166967383   0.745026384436   0.747326714242   
Al   0.499010485816   -0.00342148381057   -0.00292821419491   
Al   0.746680469389   0.248133872801   -0.00448313313115   
Al   0.744465552396   -0.00338539585735   0.247998322033   
Al   0.497182771274   0.247072539034   0.246035642449   
Al   0.496750710202   -0.000275840289174   0.497162244604   
Al   0.747928236808   0.244948949506   0.496999859602   
Al   0.747667360023   -0.00316752717382   0.747586729599   
Al   0.497472593235   0.24647299104   0.747340203303   
Al   0.496202573875   0.498306030913   -0.0043718350038   
Al   0.745560687965   0.748163816357   -0.000430114962043   
Al   0.748186839232   0.495796327156   0.246951088354   
Al   0.498083396264   0.745708472553   0.249055029721   
Al   0.494791213137   0.498202736015   0.49770466232   
Al   0.748707269388   0.747279374366   0.496219120511   
Al   0.74695885518   0.497457165144   0.748495932346   
Al   0.497495050981   0.746970746446   0.746723402538   
K_POINTS automatic
3 3 3 1 1 1 
CELL_PARAMETERS alat
1.0 0.0 0.0 
0.0 1.0 0.0 
0.0 0.0 1.0