! Edited 0:44   19/7/2021
&CONTROL 
calculation = "scf", 
disk_io = 'low', 
etot_conv_thr = 1.0E-4, 
forc_conv_thr = 1.0D-3, 
nstep = 40, 
outdir = "/scratch", 
prefix = "CVgWGJoyuiacBmnv", 
pseudo_dir = "/opt/pp", 
restart_mode = 'from_scratch', 
tprnfor = .true., 
tstress = .true., 
/ 
&SYSTEM 
celldm(1) = 15.2890603, 
degauss = 0.02, 
ecutrho = 200, 
ecutwfc = 50, 
ibrav = 0, 
nat = 32, 
nspin = 1, 
ntyp = 1, 
occupations = 'smearing', 
smearing = 'mv', 
starting_magnetization(1) = 0, 
/ 
&ELECTRONS 
conv_thr = 1.0D-6, 
diagonalization = 'david', 
mixing_beta = 1.0000000E-01, 
mixing_mode = 'TF', 
mixing_ndim = 10, 
/ 
&IONS 
ion_dynamics = 'bfgs', 
/ 
&CELL 
cell_dynamics = 'bfgs', 
cell_factor = 2.0, 
press = 0.0, 
/ 
ATOMIC_SPECIES 
Al 26.982 Al.pbe-nl-kjpaw_psl.1.0.0.UPF 
ATOMIC_POSITIONS crystal
Al   -0.00287736671572   -0.00254026891836   -0.00207260964746   
Al   0.248019797207   0.245865681883   -0.00205434194809   
Al   0.246641691505   -0.00237258733897   0.249744907938   
Al   -0.00277608840464   0.249131361918   0.248851553772   
Al   -0.000572202069112   -0.000601647269673   0.496432749614   
Al   0.248338020879   0.246045968628   0.497412405086   
Al   0.24760578077   -0.00138662610718   0.746489033337   
Al   -0.0021774144277   0.248291764554   0.749062697447   
Al   -0.000718795229117   0.498245098741   -0.00273960312508   
Al   0.248499257524   0.748791791072   0.000622871548697   
Al   0.248894726682   0.498253513243   0.249389802513   
Al   -0.00230991426669   0.747747676727   0.247586198774   
Al   -0.00173605934361   0.498631608224   0.498174911925   
Al   0.24709636511   0.747889113479   0.49635009163   
Al   0.250073152995   0.495700637233   0.744954749075   
Al   -0.00523719654403   0.745030628814   0.747328995568   
Al   0.499011330246   -0.00341856398881   -0.00292571531899   
Al   0.746683302206   0.248135465315   -0.00447930732035   
Al   0.744470275377   -0.00338250683228   0.248000030222   
Al   0.497185175437   0.247075037267   0.246039025547   
Al   0.496753483077   -0.000275604892918   0.497164666284   
Al   0.747930004806   0.244953259965   0.497002419858   
Al   0.747669350648   -0.00316482407326   0.747588789032   
Al   0.49747475007   0.246476000915   0.747342473117   
Al   0.496205814518   0.49830747651   -0.00436810417247   
Al   0.74556447638   0.748165383318   -0.000429747911051   
Al   0.748188386545   0.495799914481   0.24695369023   
Al   0.498085031853   0.745712134851   0.249055836139   
Al   0.494795658205   0.498204269762   0.497706621113   
Al   0.748708372577   0.747281696091   0.496222347033   
Al   0.746961450429   0.497459335145   0.748497215886   
Al   0.497497188651   0.746973331547   0.746726198716   
K_POINTS automatic
3 3 3 1 1 1 
CELL_PARAMETERS alat
1.0 0.0 0.0 
0.0 1.0 0.0 
0.0 0.0 1.0