! Edited 0:44   19/7/2021
&CONTROL 
calculation = "scf", 
disk_io = 'low', 
etot_conv_thr = 1.0E-4, 
forc_conv_thr = 1.0D-3, 
nstep = 40, 
outdir = "/scratch", 
prefix = "CVgWGJoyuiacBmnv", 
pseudo_dir = "/opt/pp", 
restart_mode = 'from_scratch', 
tprnfor = .true., 
tstress = .true., 
/ 
&SYSTEM 
celldm(1) = 15.2890603, 
degauss = 0.02, 
ecutrho = 200, 
ecutwfc = 50, 
ibrav = 0, 
nat = 32, 
nspin = 1, 
ntyp = 1, 
occupations = 'smearing', 
smearing = 'mv', 
starting_magnetization(1) = 0, 
/ 
&ELECTRONS 
conv_thr = 1.0D-6, 
diagonalization = 'david', 
mixing_beta = 1.0000000E-01, 
mixing_mode = 'TF', 
mixing_ndim = 10, 
/ 
&IONS 
ion_dynamics = 'bfgs', 
/ 
&CELL 
cell_dynamics = 'bfgs', 
cell_factor = 2.0, 
press = 0.0, 
/ 
ATOMIC_SPECIES 
Al 26.982 Al.pbe-nl-kjpaw_psl.1.0.0.UPF 
ATOMIC_POSITIONS crystal
Al   -0.00431605007359   -0.00381040337753   -0.00310891447119   
Al   0.24702969581   0.243798522825   -0.00308151292213   
Al   0.244962537258   -0.00355888100846   0.249617361907   
Al   -0.00416413260696   0.248697042876   0.248277330659   
Al   -0.000858303103668   -0.000902470904509   0.494649124421   
Al   0.247507031318   0.244068952941   0.496118607628   
Al   0.246408671155   -0.00207993916078   0.744733550005   
Al   -0.00326612164155   0.247437646831   0.74859404617   
Al   -0.00107819284368   0.497367648112   -0.00410940468762   
Al   0.247748886285   0.748187686608   0.000934307323045   
Al   0.248342090022   0.497380269865   0.249084703769   
Al   -0.00346487140003   0.74662151509   0.24637929816   
Al   -0.00260408901542   0.497947412336   0.497262367888   
Al   0.245644547664   0.746833670218   0.494525137444   
Al   0.250109729493   0.493550955849   0.742432123612   
Al   -0.00785579481605   0.742545943221   0.745993493351   
Al   0.498516995369   -0.00512784598321   -0.00438857297848   
Al   0.745024953309   0.247203197972   -0.00671896098053   
Al   0.741705413065   -0.00507376024843   0.247000045334   
Al   0.495777763156   0.245612555901   0.244058538321   
Al   0.495130224616   -0.000413407339376   0.495746999426   
Al   0.74689500721   0.242429889948   0.495503629787   
Al   0.746504025972   -0.0047472361099   0.746383183549   
Al   0.496212125106   0.244714001373   0.746013709676   
Al   0.494308721777   0.497461214765   -0.0065521562587   
Al   0.74334671457   0.747248074976   -0.000644621866576   
Al   0.747282579818   0.493699871721   0.245430535346   
Al   0.49712754778   0.743568202277   0.248583754209   
Al   0.492193487308   0.497306404643   0.496559931669   
Al   0.748062558866   0.745922544136   0.49433352055   
Al   0.745442175643   0.496189002718   0.747745823829   
Al   0.496245782977   0.74545999732   0.745089298075   
K_POINTS automatic
3 3 3 1 1 1 
CELL_PARAMETERS alat
1.0 0.0 0.0 
0.0 1.0 0.0 
0.0 0.0 1.0