! Edited 0:44   19/7/2021
&CONTROL 
calculation = "scf", 
disk_io = 'low', 
etot_conv_thr = 1.0E-4, 
forc_conv_thr = 1.0D-3, 
nstep = 40, 
outdir = "/scratch", 
prefix = "ApLlHtDAZiCfvjHs", 
pseudo_dir = "/opt/pp", 
restart_mode = 'from_scratch', 
tprnfor = .true., 
tstress = .true., 
/ 
&SYSTEM 
celldm(1) = 15.26728039, 
degauss = 0.02, 
ecutrho = 200, 
ecutwfc = 50, 
ibrav = 0, 
nat = 32, 
nspin = 1, 
ntyp = 1, 
occupations = 'smearing', 
smearing = 'mv', 
starting_magnetization(1) = 0, 
/ 
&ELECTRONS 
conv_thr = 1.0D-6, 
diagonalization = 'david', 
mixing_beta = 1.0000000E-01, 
mixing_mode = 'TF', 
mixing_ndim = 10, 
/ 
&IONS 
ion_dynamics = 'bfgs', 
/ 
&CELL 
cell_dynamics = 'bfgs', 
cell_factor = 2.0, 
press = 0.0, 
/ 
ATOMIC_SPECIES 
Al 26.982 Al.pbe-nl-kjpaw_psl.1.0.0.UPF 
ATOMIC_POSITIONS crystal
Al   -0.00432220723975   -0.0038158392011   -0.00311334956871   
Al   0.24702545845   0.243789675957   -0.0030859089293   
Al   0.244955350943   -0.00356395801668   0.249616816046   
Al   -0.00417007305157   0.248695184111   0.248274873143   
Al   -0.000859527536827   -0.000903758346318   0.494641491   
Al   0.247503474913   0.244060491862   0.496113070534   
Al   0.246403547858   -0.00208290634855   0.744726037023   
Al   -0.00327078100678   0.247433991444   0.748592040473   
Al   -0.00107973096589   0.497363892866   -0.00411526705878   
Al   0.247745674904   0.748185101209   0.00093564018187   
Al   0.248339724891   0.497376532625   0.249083398031   
Al   -0.00346981429656   0.74661669543   0.24637413296   
Al   -0.00260780394191   0.497944484167   0.497258462452   
Al   0.245638334288   0.746829153213   0.494517327146   
Al   0.25010988603   0.493541755808   0.742421327474   
Al   -0.00786700169112   0.742535309455   0.745987777772   
Al   0.498514879753   -0.00513516123656   -0.00439483360395   
Al   0.745017856035   0.247199208126   -0.00672854607766   
Al   0.741693580221   -0.00508099834446   0.246995765675   
Al   0.495771739822   0.245606296886   0.244050062385   
Al   0.49512327752   -0.000413997095667   0.495740932205   
Al   0.746890577707   0.242419090623   0.495497215381   
Al   0.746499038706   -0.00475400839498   0.746378023891   
Al   0.496206721421   0.244706460503   0.746008022936   
Al   0.494300602746   0.497457592999   -0.0065615033965   
Al   0.743337223164   0.747244149151   -0.000645541467571   
Al   0.747278703216   0.49369088412   0.245424016665   
Al   0.497123450013   0.74355902684   0.248581733829   
Al   0.492182350737   0.497302562029   0.496555024156   
Al   0.748059794962   0.745916727342   0.494325436896   
Al   0.745435673568   0.496183566047   0.747742608079   
Al   0.496240427307   0.745453520669   0.745082292593   
K_POINTS automatic
3 3 3 1 1 1 
CELL_PARAMETERS alat
1.0 0.0 0.0 
0.0 1.0 0.0 
0.0 0.0 1.0