! Edited 0:44   19/7/2021
&CONTROL 
calculation = "scf", 
disk_io = 'low', 
etot_conv_thr = 1.0E-4, 
forc_conv_thr = 1.0D-3, 
nstep = 40, 
outdir = "/scratch", 
prefix = "RlLckEmHImHvsLsA", 
pseudo_dir = "/opt/pp", 
restart_mode = 'from_scratch', 
tprnfor = .true., 
tstress = .true., 
/ 
&SYSTEM 
celldm(1) = 15.27580845, 
degauss = 0.02, 
ecutrho = 200, 
ecutwfc = 50, 
ibrav = 0, 
nat = 32, 
nspin = 1, 
ntyp = 1, 
occupations = 'smearing', 
smearing = 'mv', 
starting_magnetization(1) = 0, 
/ 
&ELECTRONS 
conv_thr = 1.0D-6, 
diagonalization = 'david', 
mixing_beta = 1.0000000E-01, 
mixing_mode = 'TF', 
mixing_ndim = 10, 
/ 
&IONS 
ion_dynamics = 'bfgs', 
/ 
&CELL 
cell_dynamics = 'bfgs', 
cell_factor = 2.0, 
press = 0.0, 
/ 
ATOMIC_SPECIES 
Al 26.982 Al.pbe-nl-kjpaw_psl.1.0.0.UPF 
ATOMIC_POSITIONS crystal
Al   -0.00431979427137   -0.00381370892396   -0.00311161147203   
Al   0.247027119054   0.243793143008   -0.00308418615197   
Al   0.24495816723   -0.00356196835781   0.249617029967   
Al   -0.00416774501549   0.248695912554   0.248275836233   
Al   -0.000859047686452   -0.00090325380311   0.494644482507   
Al   0.247504868654   0.244063807725   0.496115240499   
Al   0.246405555657   -0.00208174351973   0.74472898133   
Al   -0.0032689550205   0.247435423975   0.748592826497   
Al   -0.00107912818205   0.497365364532   -0.00411296961937   
Al   0.247746933431   0.748186114416   0.000935117839918   
Al   0.248340651776   0.497377997234   0.249083909744   
Al   -0.00346787719552   0.746618584235   0.246376157181   
Al   -0.00260634807733   0.497945631704   0.497259992976   
Al   0.245640769285   0.746830923409   0.49452038797   
Al   0.250109824684   0.493545361267   0.742425558436   
Al   -0.00786260976237   0.742539476785   0.745990017684   
Al   0.498515708854   -0.00513229441853   -0.00439238009029   
Al   0.745020637428   0.24720077173   -0.00672478971708   
Al   0.741698217464   -0.00507816176406   0.246997442856   
Al   0.495774100342   0.245608749768   0.24405338407   
Al   0.495126000059   -0.000413765972575   0.495743309924   
Al   0.746892313611   0.242423322834   0.495499729161   
Al   0.746500993195   -0.004751354364   0.74638004594   
Al   0.496208839103   0.244709415739   0.746010251546   
Al   0.494303784561   0.497459012355   -0.00655784029122   
Al   0.743340942808   0.747245687666   -0.000645181079682   
Al   0.74728022244   0.493694406325   0.245426571309   
Al   0.497125055912   0.743562622656   0.248582525607   
Al   0.492186715114   0.497304067934   0.49655694739   
Al   0.748060878125   0.74591900692   0.494328604847   
Al   0.745438221705   0.496185696656   0.747743868318   
Al   0.496242526172   0.745456058842   0.745085038013   
K_POINTS automatic
3 3 3 1 1 1 
CELL_PARAMETERS alat
1.0 0.0 0.0 
0.0 1.0 0.0 
0.0 0.0 1.0