! Edited 0:44   19/7/2021
&CONTROL 
calculation = "scf", 
disk_io = 'low', 
etot_conv_thr = 1.0E-4, 
forc_conv_thr = 1.0D-3, 
nstep = 40, 
outdir = "/scratch", 
prefix = "gMuCueIhyhQXarqj", 
pseudo_dir = "/opt/pp", 
restart_mode = 'from_scratch', 
tprnfor = .true., 
tstress = .true., 
/ 
&SYSTEM 
celldm(1) = 15.28152738, 
degauss = 0.02, 
ecutrho = 200, 
ecutwfc = 50, 
ibrav = 0, 
nat = 32, 
nspin = 1, 
ntyp = 1, 
occupations = 'smearing', 
smearing = 'mv', 
starting_magnetization(1) = 0, 
/ 
&ELECTRONS 
conv_thr = 1.0D-6, 
diagonalization = 'david', 
mixing_beta = 1.0000000E-01, 
mixing_mode = 'TF', 
mixing_ndim = 10, 
/ 
&IONS 
ion_dynamics = 'bfgs', 
/ 
&CELL 
cell_dynamics = 'bfgs', 
cell_factor = 2.0, 
press = 0.0, 
/ 
ATOMIC_SPECIES 
Al 26.982 Al.pbe-nl-kjpaw_psl.1.0.0.UPF 
ATOMIC_POSITIONS crystal
Al   -0.00431817763971   -0.00381228168872   -0.00311044698842   
Al   0.24702823162   0.243795465851   -0.00308303193196   
Al   0.244960054076   -0.00356063533348   0.249617173289   
Al   -0.00416618528645   0.248696400593   0.248276481481   
Al   -0.000858726198065   -0.000902915771109   0.494646486746   
Al   0.247505802427   0.244066029274   0.496116694324   
Al   0.246406900835   -0.00208096445196   0.744730953946   
Al   -0.00326773165294   0.247436383737   0.748593353115   
Al   -0.00107872433115   0.497366350513   -0.00411143038937   
Al   0.247747776615   0.748186793241   0.00093476788318   
Al   0.248341272768   0.497378978488   0.24908425258   
Al   -0.00346657938369   0.74661984969   0.246377513361   
Al   -0.00260537268254   0.497946400527   0.497261018391   
Al   0.245642400675   0.746832109398   0.49452243865   
Al   0.250109783583   0.493547776839   0.742428393081   
Al   -0.00785966727411   0.742542268797   0.745991518373   
Al   0.498516264333   -0.00513037371834   -0.00439073629425   
Al   0.745022500895   0.247201819308   -0.00672227304446   
Al   0.741701324308   -0.00507626132238   0.246998566527   
Al   0.495775681835   0.245610393141   0.24405560952   
Al   0.495127824095   -0.000413611125578   0.49574490294   
Al   0.746893476626   0.242426158316   0.495501413333   
Al   0.746502302657   -0.0047495762261   0.746381400665   
Al   0.4962102579   0.244711395677   0.746011744662   
Al   0.494305916302   0.497459963289   -0.00655538609743   
Al   0.743343434881   0.747246718435   -0.000644939628331   
Al   0.747281240285   0.493696766118   0.245428282861   
Al   0.497126131825   0.743565031768   0.24858305608   
Al   0.492189639143   0.497305076854   0.496558235912   
Al   0.748061603818   0.745920534183   0.494330727299   
Al   0.745439928896   0.496187124114   0.747744712649   
Al   0.496243932362   0.745457759358   0.745086877379   
K_POINTS automatic
3 3 3 1 1 1 
CELL_PARAMETERS alat
1.0 0.0 0.0 
0.0 1.0 0.0 
0.0 0.0 1.0